&CONTROL
   calculation = 'relax',
   prefix = 'NiPyC2_relax_sc211_meta_functionalized_CH2-CH3_pbesol_relax',
   pseudo_dir = './pseudo/',
   outdir = '/nfs/hpc/share/gantzlen'
   wf_collect = .FALSE.,
   nstep = 200,
/
&SYSTEM
   ibrav = 0,
   nat = 156,
   ntyp = 5.000000,
   tot_charge = 0.000000,
   ecutwfc = 100.000000,
   
   vdw_corr = 'grimme-d2',
   occupations = 'smearing',
   degauss = 0.200000,
   smearing = 'mv',
   nspin = 2 ,
   starting_magnetization(4) = 0.250000,
   tot_magnetization = 8.000000
/
&ELECTRONS
    electron_maxstep = 90.000000,
    scf_must_converge = .TRUE.,
    conv_thr = 1.D-6,
    mixing_mode = 'local-TF',
    diagonalization = 'david',
/
&IONS
   ion_dynamics = 'bfgs',
/
&CELL
   cell_dynamics = 'bfgs'
   cell_dofree = 'xyz'
/
ATOMIC_SPECIES
C    12.010700    C.pbesol-nc.UPF
H    1.007940    H.pbesol-n-nc.UPF
N    14.006700    N.pbesol-nc.UPF
Ni    58.693400    Ni.pbesol-n-nc.UPF
O    15.999400    O.pbesol-nc.UPF
K_POINTS {gamma}
CELL_PARAMETERS {angstrom}
     12.505600   0.000000   0.000000
     0.000000   12.523400   0.000000
     -0.227594   0.000000   10.274279
ATOMIC_POSITIONS {crystal}
C 0.288212  0.970050  0.521984
C 0.038379  0.031106  0.022308
C 0.390634  0.011770  0.546492
C 0.140244  0.987744  0.046146
C 0.451915  0.970202  0.650371
C 0.202520  0.028353  0.149893
C 0.208181  0.529704  0.526384
C 0.458545  0.471409  0.027904
C 0.245137  0.613331  0.606435
C 0.496819  0.388677  0.108617
C 0.249476  0.889206  0.603203
C 0.001069  0.112232  0.104247
C 0.407977  0.889383  0.727552
C 0.159935  0.109547  0.227812
C 0.088862  0.608983  0.727352
C 0.340890  0.391633  0.229394
C 0.046925  0.525079  0.651312
C 0.297658  0.474711  0.152754
C 0.108164  0.484270  0.550116
C 0.357832  0.515656  0.050638
C 0.433310  0.099319  0.466621
C 0.181517  0.899720  0.965672
C 0.067378  0.394474  0.470676
C 0.316043  0.604172  0.969107
C 0.788212  0.970050  0.521984
C 0.538379  0.031106  0.022308
C 0.890634  0.011770  0.546492
C 0.640244  0.987744  0.046146
C 0.951915  0.970202  0.650371
C 0.702520  0.028353  0.149893
C 0.708182  0.529704  0.526384
C 0.958546  0.471409  0.027904
C 0.745137  0.613331  0.606435
C 0.996819  0.388677  0.108617
C 0.749476  0.889206  0.603203
C 0.501069  0.112232  0.104247
C 0.907977  0.889383  0.727552
C 0.659934  0.109547  0.227812
C 0.588862  0.608983  0.727352
C 0.840890  0.391633  0.229394
C 0.546925  0.525079  0.651312
C 0.797658  0.474711  0.152754
C 0.608164  0.484270  0.550116
C 0.857832  0.515656  0.050638
C 0.933310  0.099319  0.466621
C 0.681517  0.899720  0.965672
C 0.567377  0.394474  0.470676
C 0.816043  0.604172  0.969107
C 0.565679  0.011469  0.680842
C 0.625498  0.960440  0.796581
C 0.967112  0.991263  0.908099
C 0.857291  0.043996  0.890724
C 0.935568  0.479604  0.679811
C 0.875686  0.530154  0.792591
C 0.527707  0.512149  0.915880
C 0.636495  0.458364  0.899435
C 0.065679  0.011469  0.680842
C 0.125498  0.960440  0.796581
C 0.815891  0.985636  0.179401
C 0.876853  0.035627  0.294956
C 0.435568  0.479604  0.679811
C 0.375686  0.530154  0.792591
C 0.027708  0.512150  0.915880
C 0.136497  0.458365  0.899437
H 0.237124  0.999575  0.443113
H 0.486538  0.002692  0.943499
H 0.282340  0.998665  0.172602
H 0.258700  0.500895  0.449282
H 0.322641  0.650506  0.592635
H 0.074968  0.352851  0.095028
H 0.170154  0.855123  0.588560
H 0.422322  0.147732  0.089886
H 0.453370  0.855173  0.808761
H 0.206239  0.143103  0.308797
H 0.043729  0.642944  0.806608
H 0.296378  0.357526  0.309051
H 0.218952  0.505201  0.175264
H 0.737124  0.999575  0.443113
H 0.758700  0.500895  0.449282
H 0.822641  0.650506  0.592635
H 0.574968  0.352851  0.095028
H 0.670154  0.855123  0.588560
H 0.922322  0.147732  0.089886
H 0.953370  0.855173  0.808761
H 0.706240  0.143103  0.308797
H 0.543729  0.642944  0.806608
H 0.796378  0.357526  0.309051
H 0.718952  0.505201  0.175264
H 0.560937  0.098456  0.701247
H 0.615208  0.998004  0.593907
H 0.581800  0.974217  0.888006
H 0.705962  0.997303  0.807612
H 0.636243  0.873445  0.780326
H 0.952774  0.904430  0.921508
H 0.010424  0.004419  0.816218
H 0.808199  0.030631  0.978007
H 0.814572  0.008075  0.805537
H 0.866031  0.130939  0.872382
H 0.883961  0.489399  0.591201
H 0.944337  0.393282  0.702678
H 0.860990  0.616307  0.773713
H 0.797024  0.490148  0.802477
H 0.921558  0.519885  0.885547
H 0.482096  0.500914  0.822862
H 0.543420  0.598585  0.931516
H 0.626264  0.371826  0.878970
H 0.677684  0.495053  0.815874
H 0.687785  0.469807  0.987970
H 0.060937  0.098456  0.701247
H 0.115208  0.998004  0.593907
H 0.081800  0.974217  0.888006
H 0.205962  0.997303  0.807612
H 0.136243  0.873445  0.780326
H 0.810185  0.898657  0.199471
H 0.865171  0.998737  0.092173
H 0.833419  0.022131  0.386634
H 0.956902  0.997768  0.305277
H 0.888581  0.122530  0.278996
H 0.383961  0.489399  0.591201
H 0.444337  0.393282  0.702678
H 0.360990  0.616307  0.773713
H 0.297024  0.490148  0.802477
H 0.421558  0.519885  0.885547
H 0.982097  0.500915  0.822863
H 0.043421  0.598585  0.931518
H 0.126265  0.371827  0.878971
H 0.177685  0.495054  0.815876
H 0.187785  0.469808  0.987972
N 0.308437  0.851253  0.704828
N 0.060729  0.148857  0.206052
N 0.186542  0.650310  0.705838
N 0.438810  0.350928  0.208041
N 0.808437  0.851253  0.704828
N 0.560729  0.148857  0.206052
N 0.686543  0.650310  0.705838
N 0.938810  0.350928  0.208041
Ni 0.247002  0.751486  0.836326
Ni 0.499972  0.247999  0.339178
Ni 0.747002  0.751486  0.836326
Ni 0.999972  0.247999  0.339178
O 0.122778  0.347689  0.382873
O 0.371208  0.650977  0.881292
O 0.377630  0.147507  0.377178
O 0.125098  0.852352  0.876261
O 0.473069  0.356160  0.482994
O 0.221137  0.641415  0.979877
O 0.028840  0.135158  0.481078
O 0.276686  0.862758  0.979399
O 0.622779  0.347689  0.382873
O 0.871208  0.650977  0.881292
O 0.877630  0.147507  0.377178
O 0.625098  0.852352  0.876261
O 0.973069  0.356160  0.482994
O 0.721137  0.641415  0.979877
O 0.528840  0.135158  0.481078
O 0.776686  0.862758  0.979399
