&CONTROL
   calculation = 'relax',
   prefix = 'NiPyC2_relax_sc211_ortho_functionalized_N-2CH3_lammps_vdw-df2_relax',
   pseudo_dir = './pseudo/',
   outdir = '/nfs/hpc/share/gantzlen'
   wf_collect = .FALSE.,
   nstep = 200,
/
&SYSTEM
   ibrav = 0,
   nat = 172,
   ntyp = 5.000000,
   tot_charge = 0.000000,
   ecutwfc = 100.000000,
   input_dft = 'vdw-df2',
   vdw_corr = 'grimme-d2',
   occupations = 'smearing',
   degauss = 0.200000,
   smearing = 'mv',
   nspin = 2 ,
   starting_magnetization(4) = 0.250000,
   tot_magnetization = 8.000000
/
&ELECTRONS
    electron_maxstep = 90.000000,
    scf_must_converge = .TRUE.,
    conv_thr = 1.D-6,
    mixing_mode = 'local-TF',
    diagonalization = 'david',
/
&IONS
   ion_dynamics = 'bfgs',
/
&CELL
   cell_dynamics = 'bfgs'
   cell_dofree = 'xyz'
/
ATOMIC_SPECIES
C    12.010700    C.pbesol-nc.UPF
H    1.007940    H.pbesol-n-nc.UPF
N    14.006700    N.pbesol-nc.UPF
Ni    58.693400    Ni.pbesol-n-nc.UPF
O    15.999400    O.pbesol-nc.UPF
K_POINTS {gamma}
CELL_PARAMETERS {angstrom}
     12.505600   0.000000   0.000000
     0.000000   12.523400   0.000000
     -0.227594   0.000000   10.274279
ATOMIC_POSITIONS {crystal}
C 0.409201  0.932335  0.495626
C 0.073409  0.021727  0.064054
C 0.371140  0.037929  0.494806
C 0.179961  0.986146  0.075656
C 0.299543  0.063770  0.587140
C 0.238454  0.025407  0.182225
C 0.243316  0.543399  0.529524
C 0.424485  0.449967  0.973460
C 0.285136  0.636798  0.599887
C 0.471344  0.368937  0.058149
C 0.397854  0.867145  0.608744
C 0.029791  0.099513  0.154145
C 0.281801  0.996550  0.695696
C 0.190753  0.098424  0.270998
C 0.146366  0.625575  0.746372
C 0.434612  0.483339  0.234278
C 0.123218  0.517031  0.701688
C 0.430865  0.571913  0.149514
C 0.162772  0.478174  0.583152
C 0.418180  0.556951  0.016946
C 0.424206  0.128951  0.420287
C 0.227871  0.902127  0.979679
C 0.116289  0.370325  0.513381
C 0.366568  0.646461  0.934509
C 0.909283  0.894861  0.553293
C 0.546242  0.038437  0.030549
C 0.922543  0.003162  0.590345
C 0.623705  0.967629  0.078972
C 0.873704  0.029538  0.708659
C 0.658884  0.989915  0.206694
C 0.686497  0.526802  0.545593
C 0.934721  0.423328  0.054230
C 0.741678  0.578471  0.652847
C 0.003487  0.363420  0.145056
C 0.827857  0.825998  0.614457
C 0.509378  0.126833  0.110118
C 0.821826  0.949167  0.788374
C 0.644953  0.094334  0.268109
C 0.582762  0.589705  0.763865
C 0.887746  0.408945  0.311917
C 0.529949  0.522074  0.668792
C 0.836141  0.490618  0.229973
C 0.584490  0.488189  0.558714
C 0.861406  0.502348  0.097960
C 0.978856  0.091777  0.498151
C 0.667613  0.866466  0.999301
C 0.544482  0.399228  0.466261
C 0.804327  0.592064  0.001718
C 0.315830  0.131495  0.853241
C 0.134327  0.092190  0.780145
C 0.855234  0.140103  0.067302
C 0.893382  0.987815  0.222230
C 0.010107  0.751817  0.794871
C 0.060169  0.609232  0.954199
C 0.561084  0.287778  0.869622
C 0.661922  0.364593  0.049900
C 0.645217  0.785953  0.531989
C 0.795191  0.749743  0.393261
C 0.731497  0.205806  0.462156
C 0.667524  0.026304  0.494910
C 0.916530  0.564987  0.566606
C 0.845067  0.431071  0.716932
C 0.129296  0.315085  0.976059
C 0.190031  0.415394  0.168558
H 0.449239  0.901097  0.411601
H 0.506089  0.019456  0.940185
H 0.879407  0.110646  0.744383
H 0.317377  0.993836  0.204032
H 0.274106  0.523506  0.436104
H 0.935196  0.403401  0.953376
H 0.358697  0.669696  0.568553
H 0.449528  0.800062  0.623052
H 0.434469  0.163283  0.086585
H 0.222790  0.105282  0.364851
H 0.416498  0.500337  0.332013
H 0.450928  0.491725  0.686461
H 0.420789  0.651088  0.190076
H 0.954644  0.865500  0.472751
H 0.020219  0.983455  0.993627
H 0.271594  0.145535  0.589252
H 0.684248  0.924302  0.264606
H 0.729726  0.497162  0.465908
H 0.397457  0.429743  0.876255
H 0.798825  0.974176  0.882381
H 0.554605  0.590686  0.859254
H 0.859899  0.397405  0.408415
H 0.074045  0.466091  0.757165
H 0.768985  0.534051  0.266060
H 0.399110  0.112523  0.828556
H 0.298393  0.210999  0.809267
H 0.309775  0.135739  0.958980
H 0.136357  0.166341  0.721940
H 0.083997  0.029089  0.736837
H 0.095861  0.118269  0.867795
H 0.901770  0.152320  0.977490
H 0.785122  0.091307  0.042081
H 0.825453  0.218333  0.099251
H 0.843146  0.994786  0.307338
H 0.859088  0.939322  0.144142
H 0.963954  0.942420  0.261083
H 0.046188  0.803895  0.720178
H 0.945885  0.710618  0.746328
H 0.980461  0.802570  0.875061
H 0.005531  0.551311  0.914064
H 0.130068  0.566027  0.991651
H 0.027611  0.658023  0.034408
H 0.479448  0.271572  0.832099
H 0.594338  0.354918  0.812969
H 0.610473  0.215889  0.851005
H 0.652691  0.451397  0.037912
H 0.681393  0.345941  0.152831
H 0.729731  0.337741  0.990473
H 0.625223  0.836738  0.616518
H 0.616545  0.822780  0.439791
H 0.596528  0.713003  0.536500
H 0.878119  0.720658  0.385361
H 0.740200  0.697273  0.336490
H 0.796937  0.826972  0.345795
H 0.764083  0.257977  0.387382
H 0.791489  0.188501  0.539476
H 0.674370  0.241680  0.529467
H 0.664307  0.055812  0.596955
H 0.728686  0.966543  0.486218
H 0.591289  0.991033  0.471032
H 0.965132  0.497962  0.545069
H 0.968770  0.635228  0.574477
H 0.873315  0.574168  0.475118
H 0.793007  0.419206  0.801715
H 0.924083  0.398571  0.742192
H 0.814242  0.380408  0.635739
H 0.057747  0.279251  0.928108
H 0.155204  0.385648  0.920735
H 0.193337  0.256909  0.974764
H 0.153459  0.474050  0.235842
H 0.252064  0.369305  0.221885
H 0.232832  0.460468  0.094055
N 0.327819  0.893631  0.704118
N 0.093877  0.144893  0.249080
N 0.232006  0.680317  0.705691
N 0.457973  0.379556  0.192736
N 0.799770  0.844643  0.745847
N 0.567593  0.165647  0.216982
N 0.682315  0.631613  0.745404
N 0.971805  0.346254  0.270238
N 0.241327  0.048578  0.807675
N 0.919166  0.095544  0.175835
N 0.087232  0.674753  0.845249
N 0.563001  0.311031  0.010645
N 0.760170  0.759626  0.529550
N 0.691652  0.108004  0.400413
N 0.849398  0.545760  0.681593
N 0.111940  0.339348  0.112790
Ni 0.292616  0.784355  0.842329
Ni 0.494677  0.270203  0.336781
Ni 0.737977  0.733087  0.884290
Ni 0.041322  0.237284  0.394952
O 0.161546  0.319155  0.411896
O 0.414706  0.709505  0.842787
O 0.378176  0.189530  0.323463
O 0.173161  0.856173  0.879286
O 0.443374  0.360793  0.457746
O 0.272173  0.686386  0.963072
O 0.080186  0.132149  0.511958
O 0.332965  0.876280  0.971608
O 0.606388  0.350891  0.377318
O 0.854146  0.650491  0.909985
O 0.926072  0.154564  0.411210
O 0.616766  0.815034  0.897683
O 0.016543  0.326557  0.530798
O 0.703493  0.633130  0.010836
O 0.512957  0.175759  0.463222
O 0.768281  0.825678  0.013355
