&CONTROL
   calculation = 'relax',
   prefix = 'NiPyC2_relax_sc211_ortho_functionalized_CH-CH2_lammps_pbesol_relax',
   pseudo_dir = './pseudo/',
   outdir = '/nfs/hpc/share/gantzlen'
   wf_collect = .FALSE.,
   nstep = 200,
/
&SYSTEM
   ibrav = 0,
   nat = 140,
   ntyp = 5.000000,
   tot_charge = 0.000000,
   ecutwfc = 100.000000,
   
   vdw_corr = 'grimme-d2',
   occupations = 'smearing',
   degauss = 0.200000,
   smearing = 'mv',
   nspin = 2 ,
   starting_magnetization(4) = 0.250000,
   tot_magnetization = 8.000000
/
&ELECTRONS
    electron_maxstep = 90.000000,
    scf_must_converge = .TRUE.,
    conv_thr = 1.D-6,
    mixing_mode = 'local-TF',
    diagonalization = 'david',
/
&IONS
   ion_dynamics = 'bfgs',
/
&CELL
   cell_dynamics = 'bfgs'
   cell_dofree = 'xyz'
/
ATOMIC_SPECIES
C    12.010700    C.pbesol-nc.UPF
H    1.007940    H.pbesol-n-nc.UPF
N    14.006700    N.pbesol-nc.UPF
Ni    58.693400    Ni.pbesol-n-nc.UPF
O    15.999400    O.pbesol-nc.UPF
K_POINTS {gamma}
CELL_PARAMETERS {angstrom}
     12.505600   0.000000   0.000000
     0.000000   12.523400   0.000000
     -0.227594   0.000000   10.274279
ATOMIC_POSITIONS {crystal}
C 0.268385  0.998579  0.523974
C 0.033904  0.989005  0.077880
C 0.363598  0.052637  0.558523
C 0.144883  0.978999  0.059037
C 0.418536  0.015655  0.669297
C 0.208824  0.051705  0.129859
C 0.160084  0.568503  0.500721
C 0.411273  0.433489  0.995369
C 0.224810  0.633052  0.589932
C 0.462370  0.360833  0.088106
C 0.233783  0.905106  0.596000
C 0.989768  0.088798  0.122789
C 0.389382  0.918984  0.731007
C 0.161287  0.136098  0.205168
C 0.104702  0.593705  0.754927
C 0.421452  0.481321  0.255082
C 0.062758  0.503366  0.680323
C 0.411119  0.565335  0.161934
C 0.090344  0.488636  0.549056
C 0.391604  0.541322  0.031447
C 0.415241  0.142341  0.475155
C 0.193926  0.894973  0.961341
C 0.046537  0.389298  0.462706
C 0.334231  0.624517  0.940579
C 0.841043  0.922010  0.506833
C 0.526536  0.046705  0.045010
C 0.903157  0.010195  0.550189
C 0.622884  0.990650  0.069045
C 0.916808  0.019025  0.685593
C 0.679063  0.016970  0.184563
C 0.721446  0.533536  0.562287
C 0.900364  0.452213  0.017529
C 0.756935  0.613504  0.655231
C 0.959437  0.377710  0.098587
C 0.780973  0.856724  0.596965
C 0.489846  0.126157  0.135853
C 0.872446  0.940879  0.773146
C 0.639602  0.094266  0.274911
C 0.600154  0.589501  0.767072
C 0.832326  0.402543  0.262048
C 0.548209  0.543815  0.656951
C 0.791664  0.496622  0.196745
C 0.613223  0.497774  0.561630
C 0.827770  0.524830  0.072764
C 0.947407  0.098360  0.452996
C 0.671996  0.906942  0.972832
C 0.571246  0.399336  0.484254
C 0.792731  0.632630  0.002863
C 0.153274  0.838454  0.528475
C 0.059318  0.817302  0.579497
C 0.912673  0.138377  0.029076
C 0.818618  0.177392  0.062897
C 0.037699  0.642696  0.848765
C 0.046194  0.619060  0.975066
C 0.355343  0.492110  0.365707
C 0.291065  0.412026  0.392864
C 0.685843  0.802146  0.541963
C 0.589042  0.826732  0.581532
C 0.663573  0.068643  0.412783
C 0.710137  0.137038  0.497107
C 0.609268  0.515017  0.878419
C 0.660273  0.421182  0.868462
C 0.059467  0.333289  0.047775
C 0.154478  0.368352  0.090047
H 0.223847  0.023414  0.437669
H 0.478305  0.028826  0.959491
H 0.967152  0.081913  0.724620
H 0.293404  0.037506  0.137931
H 0.165498  0.580695  0.396897
H 0.916191  0.456790  0.914851
H 0.292882  0.676174  0.553852
H 0.412794  0.162450  0.118551
H 0.439093  0.890150  0.809699
H 0.211661  0.186721  0.262467
H 0.466274  0.517252  0.665342
H 0.394482  0.645613  0.195648
H 0.831292  0.908292  0.403356
H 0.981454  0.923982  0.050852
H 0.489947  0.056959  0.703254
H 0.750425  0.972068  0.210593
H 0.778041  0.499897  0.496911
H 0.401620  0.409722  0.894422
H 0.838240  0.643032  0.652464
H 0.517441  0.303451  0.051043
H 0.895556  0.946356  0.872888
H 0.798295  0.379072  0.351541
H 0.001119  0.453685  0.720736
H 0.730377  0.544042  0.241931
H 0.168157  0.812631  0.429521
H 0.039841  0.847853  0.673242
H 0.002479  0.766578  0.527482
H 0.931501  0.137298  0.926980
H 0.799695  0.189017  0.163012
H 0.761723  0.203006  0.988137
H 0.000816  0.716797  0.819081
H 0.015542  0.673399  0.047623
H 0.091405  0.550553  0.006721
H 0.377498  0.549701  0.439670
H 0.275068  0.352594  0.319166
H 0.273308  0.393816  0.493320
H 0.694096  0.751207  0.457134
H 0.580504  0.889463  0.651584
H 0.518860  0.789748  0.536749
H 0.631240  0.995688  0.450043
H 0.738380  0.213932  0.467048
H 0.713423  0.117634  0.600061
H 0.582810  0.539288  0.972097
H 0.671901  0.371654  0.953876
H 0.694725  0.395934  0.777629
H 0.055995  0.283508  0.961449
H 0.160466  0.432248  0.160940
H 0.226546  0.334957  0.050092
N 0.296951  0.864861  0.700483
N 0.052479  0.154448  0.204388
N 0.189392  0.654267  0.713098
N 0.457775  0.379451  0.221052
N 0.803200  0.859854  0.732218
N 0.552688  0.159960  0.240734
N 0.686598  0.654750  0.745010
N 0.919904  0.346776  0.219027
Ni 0.255928  0.761114  0.840705
Ni 0.498272  0.270082  0.367606
Ni 0.736183  0.763870  0.875663
Ni 0.992380  0.246344  0.347605
O 0.099385  0.340190  0.364563
O 0.379646  0.682932  0.843562
O 0.370780  0.198018  0.374064
O 0.136628  0.837983  0.871964
O 0.470391  0.365149  0.490279
O 0.239413  0.667198  0.968180
O 0.042533  0.150474  0.467890
O 0.297120  0.859367  0.963623
O 0.623205  0.341715  0.393242
O 0.847228  0.682001  0.908192
O 0.886207  0.151976  0.363166
O 0.618400  0.849242  0.878270
O 0.953672  0.335206  0.481280
O 0.694390  0.677371  0.007420
O 0.514269  0.177803  0.497459
O 0.768864  0.862705  0.995028
