&CONTROL
   calculation = 'relax',
   prefix = 'NiPyC2_relax_sc211_ortho_functionalized_CH2-CH2-CH3_lammps_pbesol_relax',
   pseudo_dir = './pseudo/',
   outdir = '/nfs/hpc/share/gantzlen'
   wf_collect = .FALSE.,
   nstep = 200,
/
&SYSTEM
   ibrav = 0,
   nat = 180,
   ntyp = 5.000000,
   tot_charge = 0.000000,
   ecutwfc = 100.000000,
   
   vdw_corr = 'grimme-d2',
   occupations = 'smearing',
   degauss = 0.200000,
   smearing = 'mv',
   nspin = 2 ,
   starting_magnetization(4) = 0.250000,
   tot_magnetization = 8.000000
/
&ELECTRONS
    electron_maxstep = 90.000000,
    scf_must_converge = .TRUE.,
    conv_thr = 1.D-6,
    mixing_mode = 'local-TF',
    diagonalization = 'david',
/
&IONS
   ion_dynamics = 'bfgs',
/
&CELL
   cell_dynamics = 'bfgs'
   cell_dofree = 'xyz'
/
ATOMIC_SPECIES
C    12.010700    C.pbesol-nc.UPF
H    1.007940    H.pbesol-n-nc.UPF
N    14.006700    N.pbesol-nc.UPF
Ni    58.693400    Ni.pbesol-n-nc.UPF
O    15.999400    O.pbesol-nc.UPF
K_POINTS {gamma}
CELL_PARAMETERS {angstrom}
     12.505600   0.000000   0.000000
     0.000000   12.523400   0.000000
     -0.227594   0.000000   10.274279
ATOMIC_POSITIONS {crystal}
C 0.247199  0.007966  0.573776
C 0.155517  0.095790  0.985305
C 0.351231  0.030528  0.535122
C 0.189545  0.992949  0.022792
C 0.429169  0.957791  0.587121
C 0.191570  0.974464  0.155624
C 0.179359  0.558458  0.486929
C 0.452169  0.524520  0.095259
C 0.191335  0.650046  0.568970
C 0.496283  0.426694  0.144268
C 0.220685  0.902431  0.615508
C 0.078374  0.150720  0.064603
C 0.398655  0.876831  0.681362
C 0.147404  0.050320  0.242691
C 0.146538  0.545463  0.752529
C 0.327465  0.347706  0.136084
C 0.157118  0.451219  0.674549
C 0.300966  0.419001  0.029854
C 0.157068  0.458249  0.538993
C 0.359300  0.516087  0.015053
C 0.381445  0.143191  0.473005
C 0.216592  0.901999  0.923535
C 0.105921  0.369000  0.455261
C 0.317930  0.607783  0.924278
C 0.844881  0.942492  0.535820
C 0.560962  0.071511  0.041215
C 0.937960  0.000310  0.569206
C 0.648972  0.007359  0.082013
C 0.971954  0.987847  0.702450
C 0.682891  0.024252  0.212385
C 0.641098  0.596169  0.506078
C 0.906213  0.433600  0.030909
C 0.711953  0.652295  0.600663
C 0.978870  0.374518  0.117555
C 0.783958  0.884241  0.631545
C 0.499677  0.132517  0.133136
C 0.914270  0.916660  0.793954
C 0.628644  0.097868  0.301125
C 0.591063  0.605203  0.765193
C 0.869127  0.412533  0.292847
C 0.532380  0.535533  0.675840
C 0.823245  0.503211  0.215617
C 0.562487  0.521424  0.547632
C 0.834754  0.510415  0.079506
C 0.980562  0.094074  0.472845
C 0.703602  0.918776  0.987388
C 0.514859  0.424322  0.457953
C 0.790891  0.610807  0.989266
C 0.475422  0.854872  0.798524
C 0.485845  0.798617  0.946346
C 0.466967  0.854480  0.079040
C 0.976090  0.175217  0.988984
C 0.872333  0.150802  0.056012
C 0.786929  0.229750  0.018812
C 0.069650  0.533358  0.865372
C 0.059740  0.606358  0.985967
C 0.111264  0.579681  0.121009
C 0.577969  0.379962  0.057570
C 0.521579  0.345499  0.928275
C 0.592616  0.307306  0.823502
C 0.964426  0.894549  0.928949
C 0.980606  0.839836  0.068388
C 0.950245  0.899428  0.191482
C 0.667116  0.086602  0.445740
C 0.651573  0.142359  0.579923
C 0.739075  0.128922  0.685124
C 0.830696  0.642169  0.574513
C 0.881629  0.718528  0.477593
C 0.957821  0.668997  0.381035
C 0.797760  0.373619  0.401895
C 0.817944  0.346663  0.548674
C 0.885158  0.408924  0.649566
H 0.201201  0.072728  0.611167
H 0.535174  0.071086  0.940731
H 0.042349  0.030351  0.736043
H 0.228606  0.902606  0.194164
H 0.187095  0.567216  0.382950
H 0.906878  0.419340  0.928229
H 0.212356  0.722842  0.522427
H 0.057598  0.353618  0.085825
H 0.137744  0.878763  0.614848
H 0.421558  0.160287  0.102855
H 0.168726  0.039154  0.341689
H 0.274471  0.282477  0.157712
H 0.460763  0.496287  0.707112
H 0.237699  0.398094  0.961976
H 0.820872  0.937980  0.435408
H 0.164612  0.119919  0.884959
H 0.510894  0.964187  0.561131
H 0.748490  0.978289  0.249031
H 0.656085  0.603113  0.403751
H 0.501504  0.595026  0.092972
H 0.703780  0.858912  0.606101
H 0.568965  0.601279  0.864868
H 0.144015  0.373673  0.718372
H 0.772829  0.560782  0.261646
H 0.498982  0.938092  0.818662
H 0.536524  0.813134  0.741735
H 0.556592  0.754460  0.957064
H 0.449189  0.728012  0.966495
H 0.538924  0.851574  0.143392
H 0.407785  0.808958  0.136789
H 0.429745  0.933453  0.068491
H 0.981989  0.251505  0.936581
H 0.971673  0.126157  0.900080
H 0.845941  0.070674  0.024603
H 0.881082  0.150652  0.162370
H 0.712277  0.188735  0.002207
H 0.776817  0.285296  0.100440
H 0.803553  0.272629  0.927910
H 0.078939  0.451095  0.901223
H 0.991047  0.538566  0.815205
H 0.067576  0.687028  0.952363
H 0.982586  0.611510  0.014626
H 0.163004  0.645068  0.159218
H 0.152902  0.504135  0.124331
H 0.049914  0.568787  0.194962
H 0.611548  0.310992  0.109277
H 0.640864  0.439270  0.037671
H 0.481022  0.413642  0.884181
H 0.460449  0.283322  0.944469
H 0.550034  0.313698  0.728030
H 0.605457  0.221856  0.840915
H 0.666982  0.355393  0.820038
H 0.015857  0.961209  0.938351
H 0.985368  0.818739  0.884556
H 0.065820  0.818803  0.082966
H 0.938123  0.763562  0.075097
H 0.011029  0.885758  0.269915
H 0.875636  0.866083  0.230011
H 0.942241  0.984709  0.175679
H 0.655308  0.001060  0.465416
H 0.751457  0.101108  0.433534
H 0.639930  0.227071  0.562597
H 0.582884  0.108636  0.631462
H 0.816748  0.124586  0.645979
H 0.749706  0.201397  0.742659
H 0.723251  0.061637  0.752120
H 0.879033  0.639622  0.665822
H 0.835559  0.565884  0.524927
H 0.817566  0.759938  0.420736
H 0.934869  0.771176  0.536053
H 0.034496  0.713676  0.380339
H 0.975831  0.584347  0.403136
H 0.923107  0.676750  0.281691
H 0.757724  0.302154  0.359577
H 0.736947  0.435533  0.408462
H 0.845778  0.264681  0.550810
H 0.738823  0.350394  0.592903
H 0.928135  0.351409  0.714385
H 0.833015  0.456945  0.713363
H 0.945827  0.460845  0.606505
N 0.296458  0.838231  0.677517
N 0.081359  0.135211  0.201798
N 0.176884  0.645346  0.702918
N 0.426305  0.354464  0.197824
N 0.828291  0.855822  0.750352
N 0.537992  0.156707  0.257053
N 0.676868  0.670102  0.728604
N 0.948057  0.344659  0.238688
Ni 0.254363  0.749166  0.819818
Ni 0.461241  0.271663  0.359260
Ni 0.750283  0.763933  0.876769
Ni 0.031500  0.235804  0.352626
O 0.149836  0.320503  0.351625
O 0.365469  0.651522  0.817429
O 0.340354  0.186466  0.359962
O 0.148441  0.843341  0.848833
O 0.412018  0.383906  0.458393
O 0.236906  0.668488  0.953702
O 0.080280  0.138204  0.471858
O 0.304915  0.847989  0.928868
O 0.575580  0.355424  0.389588
O 0.848942  0.661294  0.897790
O 0.918665  0.149372  0.385559
O 0.657238  0.874219  0.883730
O 0.013164  0.322241  0.482446
O 0.699616  0.669070  0.003539
O 0.472195  0.194229  0.501105
O 0.786156  0.853969  0.015557
