&CONTROL
   calculation = 'relax',
   prefix = 'NiPyC2_relax_sc211_meta_functionalized_O-CH2-CH2-CH3_lammps_pbesol_relax',
   pseudo_dir = './pseudo/',
   outdir = '/nfs/hpc/share/gantzlen'
   wf_collect = .FALSE.,
   nstep = 200,
/
&SYSTEM
   ibrav = 0,
   nat = 188,
   ntyp = 5.000000,
   tot_charge = 0.000000,
   ecutwfc = 100.000000,
   
   vdw_corr = 'grimme-d2',
   occupations = 'smearing',
   degauss = 0.200000,
   smearing = 'mv',
   nspin = 2 ,
   starting_magnetization(4) = 0.250000,
   tot_magnetization = 8.000000
/
&ELECTRONS
    electron_maxstep = 90.000000,
    scf_must_converge = .TRUE.,
    conv_thr = 1.D-6,
    mixing_mode = 'local-TF',
    diagonalization = 'david',
/
&IONS
   ion_dynamics = 'bfgs',
/
&CELL
   cell_dynamics = 'bfgs'
   cell_dofree = 'xyz'
/
ATOMIC_SPECIES
C    12.010700    C.pbesol-nc.UPF
H    1.007940    H.pbesol-n-nc.UPF
N    14.006700    N.pbesol-nc.UPF
Ni    58.693400    Ni.pbesol-n-nc.UPF
O    15.999400    O.pbesol-nc.UPF
K_POINTS {gamma}
CELL_PARAMETERS {angstrom}
     12.505600   0.000000   0.000000
     0.000000   12.523400   0.000000
     -0.227594   0.000000   10.274279
ATOMIC_POSITIONS {crystal}
C 0.263792  0.967357  0.534431
C 0.021944  0.966215  0.070236
C 0.376922  0.989803  0.511267
C 0.133652  0.944033  0.069084
C 0.444975  0.914560  0.573230
C 0.196326  0.012691  0.150165
C 0.214160  0.504822  0.523105
C 0.480529  0.528377  0.108802
C 0.245772  0.560706  0.636335
C 0.525616  0.434828  0.175296
C 0.233802  0.905960  0.649722
C 0.977609  0.060706  0.133953
C 0.411814  0.853858  0.684496
C 0.150525  0.109080  0.205950
C 0.081131  0.643792  0.651396
C 0.352751  0.366262  0.203382
C 0.035600  0.562402  0.564967
C 0.305137  0.463597  0.156177
C 0.103221  0.487646  0.500694
C 0.368480  0.545116  0.099839
C 0.429291  0.102825  0.451484
C 0.184406  0.848787  0.978619
C 0.056472  0.384356  0.428598
C 0.312057  0.631314  0.006765
C 0.779769  0.996295  0.574250
C 0.623750  0.088981  0.019894
C 0.887123  0.031561  0.572542
C 0.679196  0.999673  0.070096
C 0.952629  0.993085  0.673565
C 0.708403  0.007022  0.202451
C 0.690896  0.561070  0.522522
C 0.870084  0.413947  0.993948
C 0.729443  0.648591  0.606063
C 0.913061  0.326898  0.072826
C 0.750901  0.901936  0.643948
C 0.577610  0.168234  0.105073
C 0.918654  0.901568  0.751406
C 0.665549  0.091506  0.280590
C 0.611981  0.591961  0.765151
C 0.840143  0.408123  0.255256
C 0.604186  0.489468  0.701702
C 0.809929  0.500907  0.183011
C 0.613775  0.486175  0.568155
C 0.834993  0.509568  0.052696
C 0.932373  0.109934  0.465253
C 0.710220  0.900506  0.982609
C 0.569442  0.385624  0.485060
C 0.803305  0.612719  0.972682
C 0.150784  0.869205  0.396901
C 0.033123  0.871433  0.351397
C 0.955954  0.813102  0.439720
C 0.374479  0.983503  0.127903
C 0.447875  0.887586  0.149914
C 0.508484  0.890118  0.276903
C 0.308283  0.617972  0.393542
C 0.415719  0.650075  0.455070
C 0.507085  0.652112  0.361902
C 0.126307  0.487541  0.103910
C 0.071384  0.596625  0.102688
C 0.019757  0.620455  0.230601
C 0.064006  0.080881  0.819746
C 0.096236  0.197361  0.821169
C 0.165738  0.230450  0.937693
C 0.498603  0.068813  0.871520
C 0.466615  0.111932  0.744661
C 0.345585  0.131878  0.736322
C 0.584431  0.378536  0.872816
C 0.471419  0.345709  0.831543
C 0.382806  0.420711  0.854130
C 0.892763  0.441588  0.781379
C 0.926347  0.358284  0.693887
C 0.857356  0.268597  0.666768
H 0.325566  0.551215  0.670179
H 0.935189  0.253414  0.026820
H 0.150783  0.889463  0.663726
H 0.527564  0.229294  0.065586
H 0.472772  0.815825  0.743840
H 0.202100  0.158768  0.263944
H 0.028587  0.696943  0.702173
H 0.300325  0.307200  0.242223
H 0.717516  0.052904  0.556776
H 0.969293  0.910639  0.025420
H 0.527231  0.913210  0.546911
H 0.762824  0.949303  0.245903
H 0.722644  0.552011  0.427612
H 0.533548  0.588448  0.071591
H 0.795889  0.696117  0.574886
H 0.611058  0.427513  0.185335
H 0.670289  0.874219  0.637909
H 0.893139  0.075691  0.125856
H 0.972394  0.868422  0.821950
H 0.694941  0.103057  0.375469
H 0.571526  0.603716  0.854937
H 0.809364  0.398738  0.351444
H 0.950011  0.558951  0.548575
H 0.766865  0.564768  0.228741
H 0.199889  0.835923  0.318352
H 0.156291  0.807744  0.473235
H 0.006466  0.954110  0.343080
H 0.025678  0.834374  0.254675
H 0.981074  0.822660  0.541425
H 0.873563  0.842910  0.421946
H 0.953347  0.726848  0.423027
H 0.414634  0.058704  0.152248
H 0.351107  0.985459  0.023368
H 0.501974  0.876511  0.067580
H 0.398290  0.815897  0.159773
H 0.519859  0.970184  0.312543
H 0.585781  0.847645  0.269704
H 0.458758  0.850672  0.348032
H 0.305107  0.638150  0.290309
H 0.246338  0.673594  0.426239
H 0.405322  0.729981  0.493491
H 0.439593  0.598286  0.536736
H 0.572380  0.702599  0.402575
H 0.537610  0.571422  0.349503
H 0.482222  0.683940  0.266535
H 0.070133  0.427689  0.133786
H 0.150394  0.460235  0.006244
H 0.015557  0.601721  0.019064
H 0.127851  0.662874  0.091798
H 0.993015  0.548289  0.280518
H 0.950392  0.674018  0.212772
H 0.080061  0.657769  0.296753
H 0.989844  0.075947  0.876964
H 0.130836  0.035543  0.861943
H 0.022595  0.241371  0.835506
H 0.134229  0.220309  0.728490
H 0.227416  0.170488  0.964732
H 0.204576  0.305594  0.912185
H 0.116930  0.248865  0.022544
H 0.444032  0.106638  0.941442
H 0.488074  0.980956  0.872983
H 0.506425  0.060288  0.680160
H 0.512561  0.181191  0.719105
H 0.301282  0.065129  0.779663
H 0.315881  0.150850  0.638991
H 0.324699  0.203209  0.790053
H 0.590702  0.442794  0.943883
H 0.625430  0.310245  0.919809
H 0.452945  0.275417  0.888655
H 0.467261  0.333175  0.725497
H 0.317539  0.406907  0.782574
H 0.346751  0.397561  0.944159
H 0.411852  0.502911  0.852137
H 0.965963  0.484610  0.818337
H 0.842504  0.498202  0.725509
H 0.010545  0.352347  0.674390
H 0.663930  0.222510  0.634333
H 0.417402  0.661159  0.776224
H 0.291490  0.323989  0.596384
H 0.217460  0.201754  0.473421
N 0.305511  0.842591  0.715173
N 0.041759  0.131270  0.203143
N 0.189997  0.647375  0.676516
N 0.461268  0.355812  0.225147
N 0.818451  0.855846  0.734284
N 0.584514  0.156616  0.235500
N 0.686802  0.665479  0.728115
N 0.909614  0.332471  0.205927
Ni 0.257491  0.719508  0.824755
Ni 0.510060  0.249812  0.361555
Ni 0.755653  0.758843  0.867476
Ni 0.987028  0.239000  0.336015
O 0.104837  0.326062  0.334799
O 0.342548  0.737731  0.975922
O 0.388014  0.164719  0.353875
O 0.134842  0.794046  0.884755
O 0.466827  0.343977  0.485894
O 0.233394  0.606271  0.924299
O 0.033822  0.151165  0.465067
O 0.288049  0.813174  0.973528
O 0.627584  0.329509  0.399703
O 0.864075  0.663410  0.881307
O 0.873051  0.157373  0.370090
O 0.647123  0.853682  0.887594
O 0.960947  0.338989  0.453524
O 0.711932  0.667387  0.989792
O 0.528780  0.145251  0.484433
O 0.803212  0.846423  0.994308
O 0.188384  0.974112  0.433682
O 0.287394  0.972436  0.208633
O 0.283216  0.508455  0.420393
O 0.205824  0.489424  0.200472
O 0.051579  0.040374  0.692926
O 0.605866  0.096254  0.890605
O 0.645214  0.402501  0.765787
O 0.830583  0.391238  0.874071
