&CONTROL
   calculation = 'relax',
   prefix = 'NiPyC2_relax_sc211_ortho_functionalized_P-2CH3_lammps_pbesol_relax',
   pseudo_dir = './pseudo/',
   outdir = '/nfs/hpc/share/gantzlen'
   wf_collect = .FALSE.,
   nstep = 200,
/
&SYSTEM
   ibrav = 0,
   nat = 172,
   ntyp = 6.000000,
   tot_charge = 0.000000,
   ecutwfc = 100.000000,
   
   vdw_corr = 'grimme-d2',
   occupations = 'smearing',
   degauss = 0.200000,
   smearing = 'mv',
   nspin = 2 ,
   starting_magnetization(4) = 0.250000,
   tot_magnetization = 8.000000
/
&ELECTRONS
    electron_maxstep = 90.000000,
    scf_must_converge = .TRUE.,
    conv_thr = 1.D-6,
    mixing_mode = 'local-TF',
    diagonalization = 'david',
/
&IONS
   ion_dynamics = 'bfgs',
/
&CELL
   cell_dynamics = 'bfgs'
   cell_dofree = 'xyz'
/
ATOMIC_SPECIES
C    12.010700    C.pbesol-nc.UPF
H    1.007940    H.pbesol-n-nc.UPF
N    14.006700    N.pbesol-nc.UPF
Ni    58.693400    Ni.pbesol-n-nc.UPF
O    15.999400    O.pbesol-nc.UPF
P    30.973762    P.pbesol-n-nc.UPF
K_POINTS {gamma}
CELL_PARAMETERS {angstrom}
     12.505600   0.000000   0.000000
     0.000000   12.523400   0.000000
     -0.227594   0.000000   10.274279
ATOMIC_POSITIONS {crystal}
C 0.385774  0.914696  0.502255
C 0.076062  0.070256  0.045865
C 0.427205  0.010399  0.551614
C 0.141018  0.987352  0.070606
C 0.443127  0.009906  0.690772
C 0.178010  0.983335  0.208565
C 0.154511  0.558110  0.517978
C 0.403824  0.412957  0.967838
C 0.196186  0.647102  0.583050
C 0.466741  0.360749  0.064856
C 0.320304  0.849146  0.582634
C 0.024673  0.120547  0.151091
C 0.397889  0.924222  0.772513
C 0.155392  0.074651  0.297482
C 0.067630  0.639194  0.744567
C 0.356299  0.423456  0.226367
C 0.020654  0.545186  0.677923
C 0.324853  0.508992  0.140213
C 0.070511  0.501567  0.565563
C 0.344581  0.502525  0.003762
C 0.450142  0.113138  0.457841
C 0.182535  0.913139  0.951017
C 0.047271  0.389861  0.504881
C 0.277454  0.565981  0.899405
C 0.824403  0.934874  0.523552
C 0.610300  0.065572  0.992147
C 0.905482  0.004347  0.569408
C 0.646451  0.969114  0.049694
C 0.935789  0.989052  0.700406
C 0.657615  0.975166  0.188076
C 0.691713  0.560520  0.465530
C 0.889645  0.397458  0.007663
C 0.734678  0.635185  0.561449
C 0.961001  0.338090  0.092261
C 0.771357  0.864222  0.612104
C 0.556528  0.146593  0.067786
C 0.902376  0.897847  0.775741
C 0.625221  0.071443  0.257980
C 0.639626  0.539201  0.715994
C 0.912643  0.451215  0.266041
C 0.648721  0.448361  0.639074
C 0.857874  0.521216  0.177658
C 0.637550  0.466919  0.508772
C 0.841633  0.493863  0.047146
C 0.954060  0.101486  0.485504
C 0.679042  0.863456  0.963009
C 0.562148  0.397910  0.421235
C 0.795355  0.576272  0.945615
C 0.443521  0.808311  0.078100
C 0.388098  0.015633  0.034507
C 0.250417  0.206697  0.543390
C 0.155145  0.000465  0.581981
C 0.127433  0.702783  0.075992
C 0.064933  0.530135  0.982492
C 0.680074  0.319748  0.948737
C 0.592133  0.527049  0.142155
C 0.929792  0.842175  0.109428
C 0.853217  0.035027  0.967901
C 0.725600  0.181692  0.541637
C 0.765605  0.239762  0.271064
C 0.510390  0.669761  0.837755
C 0.441634  0.585541  0.596192
C 0.204242  0.274935  0.098775
C 0.096442  0.287896  0.836620
H 0.378832  0.905217  0.397890
H 0.615391  0.075896  0.888289
H 0.973549  0.054995  0.750935
H 0.225336  0.916772  0.243345
H 0.194721  0.529713  0.432283
H 0.884769  0.376208  0.905426
H 0.261216  0.677948  0.537579
H 0.246111  0.830350  0.536302
H 0.496105  0.188050  0.015606
H 0.324390  0.422293  0.322793
H 0.619509  0.372801  0.675763
H 0.288052  0.577318  0.182163
H 0.799036  0.936838  0.423430
H 0.059776  0.092783  0.946304
H 0.497011  0.067567  0.733799
H 0.706850  0.917371  0.237775
H 0.707050  0.572139  0.364983
H 0.399739  0.382152  0.869393
H 0.803892  0.681479  0.537655
H 0.691855  0.836107  0.586446
H 0.948721  0.149530  0.135890
H 0.920328  0.480026  0.363138
H 0.951402  0.505693  0.716424
H 0.838010  0.601054  0.209659
H 0.409614  0.730426  0.053885
H 0.389976  0.832522  0.157695
H 0.522970  0.798553  0.125960
H 0.363534  0.085599  0.975621
H 0.429435  0.020530  0.129038
H 0.325625  0.985731  0.082208
H 0.277533  0.268716  0.475105
H 0.186395  0.240921  0.601317
H 0.314803  0.192526  0.616735
H 0.111142  0.930873  0.539707
H 0.214608  0.990298  0.657393
H 0.111591  0.048308  0.647758
H 0.117054  0.784564  0.099368
H 0.212553  0.688926  0.073757
H 0.097926  0.664109  0.165492
H 0.032959  0.481548  0.904456
H 0.029055  0.529315  0.076342
H 0.140660  0.500615  0.016955
H 0.744256  0.297054  0.010338
H 0.684401  0.234238  0.941591
H 0.706376  0.358280  0.859836
H 0.540874  0.582184  0.088638
H 0.667745  0.565294  0.161793
H 0.551641  0.520593  0.234812
H 0.927513  0.754050  0.098427
H 0.858576  0.861076  0.165670
H 0.993028  0.867823  0.178410
H 0.892824  0.108449  0.936760
H 0.830748  0.040342  0.070736
H 0.787113  0.031826  0.897024
H 0.667412  0.148972  0.610862
H 0.721589  0.269451  0.539688
H 0.800471  0.169311  0.594987
H 0.818402  0.209612  0.200832
H 0.796940  0.301486  0.338904
H 0.713806  0.275321  0.202063
H 0.472136  0.634587  0.916650
H 0.478041  0.736382  0.780468
H 0.552312  0.693889  0.922282
H 0.385633  0.520966  0.566231
H 0.403368  0.660402  0.615448
H 0.494656  0.607700  0.516559
H 0.197629  0.306353  0.198270
H 0.230866  0.191513  0.096726
H 0.260292  0.313474  0.039616
H 0.132232  0.361542  0.796345
H 0.152385  0.221406  0.817515
H 0.018096  0.271423  0.788138
N 0.324968  0.851374  0.718537
N 0.081720  0.150800  0.259833
N 0.146183  0.695326  0.688437
N 0.424598  0.342902  0.186685
N 0.819510  0.832402  0.728749
N 0.556705  0.143312  0.202580
N 0.697951  0.631594  0.687759
N 0.956421  0.352410  0.228981
Ni 0.215888  0.772749  0.832833
Ni 0.495018  0.252069  0.329407
Ni 0.745612  0.725555  0.842155
Ni 0.008620  0.250140  0.382452
O 0.112074  0.343936  0.415949
O 0.306054  0.660908  0.854483
O 0.388303  0.156850  0.357509
O 0.128775  0.889687  0.832901
O 0.463842  0.355214  0.451507
O 0.306067  0.660920  0.854475
O 0.034435  0.164062  0.520839
O 0.256653  0.839037  0.970219
O 0.602413  0.339408  0.330722
O 0.854165  0.635813  0.866228
O 0.911614  0.149168  0.381730
O 0.634653  0.826812  0.848311
O 0.950622  0.340878  0.500031
O 0.699348  0.622832  0.951963
O 0.536070  0.171365  0.466106
O 0.764372  0.803672  0.984536
P 0.442931  0.910735  0.942830
P 0.213048  0.079673  0.459286
P 0.058066  0.657849  0.924369
P 0.597933  0.398052  0.059257
P 0.929324  0.914496  0.948421
P 0.715906  0.129356  0.368061
P 0.509060  0.554706  0.748421
P 0.083768  0.300485  0.012203
