&CONTROL
   calculation = 'relax',
   prefix = 'NiPyC2_relax_sc211_meta_functionalized_C-3CH3_lammps_vdw-df2_relax',
   pseudo_dir = './pseudo/',
   outdir = '/nfs/hpc/share/gantzlen'
   wf_collect = .FALSE.,
   nstep = 200,
/
&SYSTEM
   ibrav = 0,
   nat = 204,
   ntyp = 5.000000,
   tot_charge = 0.000000,
   ecutwfc = 100.000000,
   input_dft = 'vdw-df2',
   vdw_corr = 'grimme-d2',
   occupations = 'smearing',
   degauss = 0.200000,
   smearing = 'mv',
   nspin = 2 ,
   starting_magnetization(4) = 0.250000,
   tot_magnetization = 8.000000
/
&ELECTRONS
    electron_maxstep = 90.000000,
    scf_must_converge = .TRUE.,
    conv_thr = 1.D-6,
    mixing_mode = 'local-TF',
    diagonalization = 'david',
/
&IONS
   ion_dynamics = 'bfgs',
/
&CELL
   cell_dynamics = 'bfgs'
   cell_dofree = 'xyz'
/
ATOMIC_SPECIES
C    12.010700    C.pbesol-nc.UPF
H    1.007940    H.pbesol-n-nc.UPF
N    14.006700    N.pbesol-nc.UPF
Ni    58.693400    Ni.pbesol-n-nc.UPF
O    15.999400    O.pbesol-nc.UPF
K_POINTS {gamma}
CELL_PARAMETERS {angstrom}
     12.505600   0.000000   0.000000
     0.000000   12.523400   0.000000
     -0.227594   0.000000   10.274279
ATOMIC_POSITIONS {crystal}
C 0.237644  0.034203  0.554673
C 0.130442  0.109263  0.996644
C 0.343338  0.077983  0.572018
C 0.154693  0.004826  0.045670
C 0.407959  0.013366  0.651037
C 0.194906  0.005404  0.179443
C 0.204773  0.572554  0.503654
C 0.381736  0.440503  0.961274
C 0.209209  0.670973  0.572899
C 0.416863  0.351926  0.043967
C 0.202712  0.935696  0.615815
C 0.112182  0.196915  0.089415
C 0.371293  0.905601  0.695367
C 0.180143  0.099316  0.257294
C 0.078345  0.606990  0.709182
C 0.343090  0.433047  0.225593
C 0.098380  0.500043  0.671528
C 0.295118  0.515956  0.144655
C 0.147215  0.485555  0.553101
C 0.309653  0.519853  0.009681
C 0.403430  0.168456  0.479999
C 0.164657  0.899660  0.954517
C 0.109809  0.396371  0.468957
C 0.260218  0.616928  0.921493
C 0.802548  0.973450  0.569273
C 0.559116  0.009097  0.049597
C 0.914309  0.022064  0.574610
C 0.662270  0.973450  0.056413
C 0.974629  0.969202  0.670589
C 0.733771  0.042708  0.113926
C 0.731531  0.524418  0.540823
C 0.995762  0.554238  0.130485
C 0.773027  0.578587  0.656936
C 0.048231  0.469559  0.203539
C 0.766427  0.899085  0.663291
C 0.522270  0.112200  0.090801
C 0.935714  0.868326  0.724808
C 0.688244  0.149738  0.170558
C 0.616184  0.676383  0.658300
C 0.895518  0.365826  0.180986
C 0.561272  0.597083  0.580344
C 0.853534  0.435796  0.085482
C 0.615618  0.510237  0.526996
C 0.898315  0.533623  0.063543
C 0.971632  0.123962  0.481313
C 0.697562  0.866745  0.984089
C 0.545254  0.403925  0.477646
C 0.840640  0.613104  0.971069
C 0.492223  0.070073  0.729220
C 0.566710  0.986984  0.773755
C 0.429975  0.132305  0.826645
C 0.569545  0.147284  0.667253
C 0.285410  0.929436  0.218855
C 0.368077  0.967421  0.320183
C 0.240468  0.823291  0.260844
C 0.356959  0.924054  0.108470
C 0.053950  0.403585  0.750065
C 0.063713  0.427073  0.894109
C 0.114165  0.294153  0.734076
C 0.933195  0.390289  0.716485
C 0.442002  0.465116  0.839635
C 0.534560  0.392101  0.811416
C 0.362876  0.450189  0.723938
C 0.493309  0.576374  0.856662
C 0.741256  0.964243  0.448708
C 0.622342  0.921866  0.443080
C 0.737624  0.075412  0.410653
C 0.806048  0.886812  0.369095
C 0.857724  0.016691  0.087648
C 0.916123  0.087466  0.166846
C 0.929325  0.905321  0.121552
C 0.877753  0.047263  0.943025
C 0.787318  0.552909  0.420440
C 0.898504  0.600238  0.419726
C 0.725847  0.545651  0.299193
C 0.806147  0.333035  0.451700
C 0.541181  0.545033  0.129563
C 0.435658  0.632811  0.343372
C 0.572792  0.761896  0.180490
C 0.652276  0.361688  0.100396
H 0.197728  0.047926  0.470499
H 0.508828  0.963085  0.997725
H 0.040692  0.010557  0.716252
H 0.249593  0.563781  0.417527
H 0.034604  0.630520  0.119267
H 0.269639  0.727840  0.548246
H 0.121828  0.486896  0.251209
H 0.135262  0.894717  0.572133
H 0.442029  0.137367  0.071736
H 0.427156  0.841097  0.706709
H 0.244361  0.128002  0.315915
H 0.019120  0.622405  0.772914
H 0.335450  0.437808  0.328887
H 0.475713  0.601778  0.571197
H 0.256837  0.582862  0.190667
H 0.111082  0.119227  0.895199
H 0.857115  0.580394  0.675919
H 0.468526  0.295731  0.005383
H 0.702495  0.851175  0.640730
H 0.079233  0.268541  0.055105
H 0.982906  0.798135  0.711479
H 0.738919  0.201088  0.222283
H 0.571704  0.744216  0.689639
H 0.843807  0.314608  0.225479
H 0.583614  0.943178  0.687684
H 0.642095  0.015468  0.818886
H 0.525855  0.926090  0.823432
H 0.375230  0.083370  0.883043
H 0.489977  0.174321  0.881481
H 0.378916  0.194072  0.779113
H 0.614511  0.104515  0.595128
H 0.532969  0.221128  0.633025
H 0.632458  0.176724  0.734200
H 0.383987  0.050897  0.298607
H 0.448503  0.936247  0.306117
H 0.353731  0.937166  0.415323
H 0.191470  0.835803  0.348271
H 0.306708  0.770800  0.288890
H 0.192148  0.785268  0.182626
H 0.372655  0.004915  0.100628
H 0.348017  0.959660  0.011483
H 0.420822  0.865803  0.114121
H 0.046775  0.509419  0.913291
H 0.003992  0.378646  0.943535
H 0.143590  0.411977  0.937051
H 0.173307  0.277554  0.813497
H 0.057378  0.226111  0.734465
H 0.163725  0.285810  0.648451
H 0.881917  0.425514  0.790894
H 0.912269  0.432165  0.626859
H 0.907526  0.307066  0.700634
H 0.589540  0.382327  0.890773
H 0.581872  0.424635  0.734480
H 0.505324  0.316272  0.784725
H 0.325728  0.369888  0.727638
H 0.399632  0.454753  0.628571
H 0.299900  0.508984  0.724975
H 0.469595  0.625952  0.938795
H 0.467763  0.624685  0.776959
H 0.580694  0.574695  0.867928
H 0.598157  0.850855  0.495633
H 0.604498  0.902990  0.341590
H 0.562055  0.978696  0.473125
H 0.765773  0.135393  0.480988
H 0.659297  0.099880  0.381229
H 0.792377  0.078374  0.338978
H 0.807885  0.806043  0.412056
H 0.891315  0.908859  0.365271
H 0.766301  0.884153  0.273635
H 0.901006  0.170818  0.153867
H 0.988241  0.074979  0.132026
H 0.934080  0.051640  0.260702
H 0.001105  0.911941  0.187221
H 0.966920  0.872063  0.034362
H 0.894541  0.836083  0.167707
H 0.897810  0.131633  0.926445
H 0.810331  0.027272  0.877635
H 0.949496  0.007215  0.909608
H 0.920041  0.650141  0.504711
H 0.955952  0.535009  0.412372
H 0.907649  0.652961  0.334325
H 0.652639  0.591375  0.308871
H 0.766067  0.577037  0.217938
H 0.706924  0.462477  0.285230
H 0.815169  0.159965  0.717389
H 0.761187  0.300711  0.832716
H 0.812862  0.251549  0.009336
H 0.655654  0.241228  0.505594
H 0.105436  0.666626  0.314211
H 0.706939  0.341074  0.653910
H 0.667108  0.719800  0.425120
H 0.429621  0.794412  0.488113
H 0.766667  0.734035  0.191152
H 0.665901  0.186857  0.930522
H 0.729369  0.470240  0.868812
H 0.376989  0.706465  0.097445
N 0.266837  0.879721  0.700142
N 0.110537  0.174512  0.222231
N 0.147618  0.686946  0.680533
N 0.407032  0.353950  0.175972
N 0.830593  0.853826  0.747227
N 0.576877  0.175263  0.168359
N 0.716015  0.656719  0.713100
N 0.996854  0.373539  0.227869
Ni 0.206879  0.768564  0.825736
Ni 0.465729  0.241075  0.299544
Ni 0.768985  0.744644  0.863969
Ni 0.048890  0.266966  0.362198
O 0.169110  0.342304  0.383607
O 0.313526  0.677297  0.832230
O 0.364778  0.263048  0.427861
O 0.098451  0.863480  0.859456
O 0.564147  0.343974  0.370664
O 0.165489  0.665300  0.941332
O 0.073693  0.163575  0.492267
O 0.250293  0.838446  0.951128
O 0.564203  0.343979  0.370622
O 0.889188  0.672990  0.882375
O 0.927036  0.185173  0.382455
O 0.647351  0.817781  0.882961
O 0.013055  0.354109  0.479264
O 0.735701  0.640649  0.977022
O 0.495752  0.145977  0.419427
O 0.794503  0.825862  0.991865
