&CONTROL
   calculation = 'relax',
   prefix = 'NiPyC2_relax_sc211_meta_functionalized_CH2-CH3_lammps_vdw-df2_relax',
   pseudo_dir = './pseudo/',
   outdir = '/nfs/hpc/share/gantzlen'
   wf_collect = .FALSE.,
   nstep = 200,
/
&SYSTEM
   ibrav = 0,
   nat = 156,
   ntyp = 5.000000,
   tot_charge = 0.000000,
   ecutwfc = 100.000000,
   input_dft = 'vdw-df2',
   vdw_corr = 'grimme-d2',
   occupations = 'smearing',
   degauss = 0.200000,
   smearing = 'mv',
   nspin = 2 ,
   starting_magnetization(4) = 0.250000,
   tot_magnetization = 8.000000
/
&ELECTRONS
    electron_maxstep = 90.000000,
    scf_must_converge = .TRUE.,
    conv_thr = 1.D-6,
    mixing_mode = 'local-TF',
    diagonalization = 'david',
/
&IONS
   ion_dynamics = 'bfgs',
/
&CELL
   cell_dynamics = 'bfgs'
   cell_dofree = 'xyz'
/
ATOMIC_SPECIES
C    12.010700    C.pbesol-nc.UPF
H    1.007940    H.pbesol-n-nc.UPF
N    14.006700    N.pbesol-nc.UPF
Ni    58.693400    Ni.pbesol-n-nc.UPF
O    15.999400    O.pbesol-nc.UPF
K_POINTS {gamma}
CELL_PARAMETERS {angstrom}
     12.505600   0.000000   0.000000
     0.000000   12.523400   0.000000
     -0.227594   0.000000   10.274279
ATOMIC_POSITIONS {crystal}
C 0.348742  0.921746  0.516812
C 0.042251  0.043660  0.037670
C 0.402560  0.014655  0.559453
C 0.146606  0.995145  0.062853
C 0.418984  0.024624  0.696776
C 0.207408  0.045094  0.163280
C 0.237274  0.547394  0.537089
C 0.493005  0.503794  0.103025
C 0.280103  0.611240  0.644827
C 0.526590  0.423039  0.191430
C 0.307757  0.845785  0.608497
C 0.010959  0.141018  0.104154
C 0.397517  0.934786  0.780489
C 0.165859  0.134109  0.235862
C 0.107694  0.633095  0.727360
C 0.362087  0.334815  0.168526
C 0.062858  0.571323  0.621481
C 0.316712  0.428302  0.103049
C 0.127955  0.513861  0.536859
C 0.382005  0.516768  0.069184
C 0.452618  0.095544  0.460490
C 0.194783  0.891371  0.988527
C 0.077514  0.425832  0.440661
C 0.334251  0.619720  0.993345
C 0.776409  0.017716  0.488429
C 0.595159  0.938715  0.118906
C 0.885341  0.050143  0.495692
C 0.637003  0.976572  0.000149
C 0.952937  0.985635  0.574060
C 0.643772  0.089019  0.986590
C 0.734720  0.507155  0.512968
C 0.952895  0.464928  0.959734
C 0.759137  0.610801  0.566910
C 0.002905  0.396719  0.059188
C 0.736095  0.929604  0.567789
C 0.567636  0.013207  0.220567
C 0.912713  0.888393  0.636314
C 0.610934  0.160475  0.088261
C 0.595667  0.610154  0.678088
C 0.884406  0.465749  0.211461
C 0.568701  0.505193  0.624142
C 0.860734  0.555281  0.129594
C 0.633719  0.459725  0.528474
C 0.887342  0.553729  0.997608
C 0.931396  0.156756  0.427804
C 0.687001  0.898662  0.896468
C 0.596242  0.353691  0.457248
C 0.829074  0.633068  0.897968
C 0.438839  0.133504  0.756243
C 0.380818  0.149835  0.885036
C 0.954121  0.985874  0.967753
C 0.896827  0.060442  0.869335
C 0.296631  0.549074  0.411334
C 0.244226  0.627675  0.315230
C 0.580390  0.550215  0.025083
C 0.644553  0.459874  0.958196
C 0.066130  0.024891  0.595491
C 0.128997  0.977243  0.701166
C 0.588353  0.819163  0.142474
C 0.512448  0.784483  0.249634
C 0.475012  0.435813  0.670274
C 0.419685  0.451854  0.794998
C 0.953139  0.428478  0.820643
C 0.909341  0.316836  0.804764
H 0.330540  0.911350  0.414160
H 0.284467  0.012146  0.191641
H 0.362967  0.635220  0.643881
H 0.065759  0.342488  0.032157
H 0.245857  0.793677  0.572587
H 0.551896  0.981355  0.314547
H 0.432841  0.932462  0.877014
H 0.207485  0.158662  0.323749
H 0.056988  0.661545  0.802187
H 0.311853  0.267507  0.185199
H 0.232645  0.429331  0.077009
H 0.723711  0.057074  0.419953
H 0.673461  0.122404  0.897580
H 0.799140  0.457829  0.483577
H 0.833175  0.649229  0.542446
H 0.609014  0.425933  0.221959
H 0.651190  0.912979  0.565774
H 0.931824  0.172963  0.088374
H 0.967595  0.837289  0.688776
H 0.621400  0.244974  0.075003
H 0.539717  0.650771  0.738712
H 0.833785  0.450866  0.290805
H 0.977956  0.567358  0.607798
H 0.809980  0.618168  0.165566
H 0.408645  0.196133  0.688399
H 0.525828  0.146090  0.769751
H 0.292948  0.142621  0.869464
H 0.398511  0.229607  0.924784
H 0.407634  0.092516  0.961063
H 0.897325  0.962630  0.044307
H 0.979660  0.912356  0.918906
H 0.850757  0.122708  0.918437
H 0.838492  0.020343  0.805560
H 0.954258  0.098709  0.805262
H 0.300155  0.467978  0.369506
H 0.381138  0.573964  0.428770
H 0.182466  0.586265  0.254509
H 0.305691  0.661649  0.251647
H 0.206190  0.695859  0.365653
H 0.553340  0.610910  0.955797
H 0.634266  0.592350  0.094959
H 0.596442  0.388445  0.935348
H 0.679534  0.485459  0.865850
H 0.709226  0.430463  0.023861
H 0.063298  0.108548  0.630246
H 0.111149  0.017516  0.503659
H 0.095874  0.998786  0.794031
H 0.208268  0.015150  0.702027
H 0.129390  0.891100  0.683483
H 0.559142  0.780559  0.051363
H 0.669736  0.788171  0.165939
H 0.546430  0.804207  0.347446
H 0.432870  0.822636  0.235588
H 0.501786  0.696687  0.246386
H 0.411798  0.436378  0.593974
H 0.507131  0.353672  0.682615
H 0.448650  0.525231  0.830944
H 0.331401  0.450725  0.783213
H 0.437629  0.388063  0.865284
H 0.902286  0.479926  0.758050
H 0.037114  0.426728  0.788864
H 0.828367  0.310217  0.846371
H 0.905203  0.294964  0.699985
H 0.965996  0.262711  0.855296
N 0.327701  0.855351  0.742256
N 0.071945  0.185522  0.200744
N 0.214675  0.654915  0.737520
N 0.467575  0.332141  0.211826
N 0.804315  0.866011  0.643000
N 0.569817  0.123183  0.202856
N 0.694056  0.658350  0.656162
N 0.962932  0.392694  0.182958
Ni 0.267363  0.754799  0.877839
Ni 0.522517  0.224832  0.343557
Ni 0.753404  0.764349  0.785105
Ni 0.009981  0.290293  0.324332
O 0.132118  0.366441  0.352864
O 0.386301  0.678251  0.901962
O 0.399232  0.150255  0.363101
O 0.146040  0.833376  0.891344
O 0.495371  0.316404  0.464226
O 0.231959  0.656664  0.000962
O 0.031951  0.196552  0.449745
O 0.296145  0.852412  0.006635
O 0.648643  0.298738  0.362563
O 0.876149  0.687895  0.800435
O 0.884619  0.213010  0.328196
O 0.631068  0.841329  0.804534
O 0.974805  0.388887  0.445203
O 0.729028  0.672135  0.912945
O 0.555229  0.128534  0.467619
O 0.787888  0.860238  0.905421
