&CONTROL
   calculation = 'relax',
   prefix = 'NiPyC2_relax_sc211_meta_functionalized_PH2_lammps_pbesol_relax',
   pseudo_dir = './pseudo/',
   outdir = '/nfs/hpc/share/gantzlen'
   wf_collect = .FALSE.,
   nstep = 200,
/
&SYSTEM
   ibrav = 0,
   nat = 124,
   ntyp = 6.000000,
   tot_charge = 0.000000,
   ecutwfc = 100.000000,
   
   vdw_corr = 'grimme-d2',
   occupations = 'smearing',
   degauss = 0.200000,
   smearing = 'mv',
   nspin = 2 ,
   starting_magnetization(4) = 0.250000,
   tot_magnetization = 8.000000
/
&ELECTRONS
    electron_maxstep = 90.000000,
    scf_must_converge = .TRUE.,
    conv_thr = 1.D-6,
    mixing_mode = 'local-TF',
    diagonalization = 'david',
/
&IONS
   ion_dynamics = 'bfgs',
/
&CELL
   cell_dynamics = 'bfgs'
   cell_dofree = 'xyz'
/
ATOMIC_SPECIES
C    12.010700    C.pbesol-nc.UPF
H    1.007940    H.pbesol-n-nc.UPF
N    14.006700    N.pbesol-nc.UPF
Ni    58.693400    Ni.pbesol-n-nc.UPF
O    15.999400    O.pbesol-nc.UPF
P    30.973762    P.pbesol-n-nc.UPF
K_POINTS {gamma}
CELL_PARAMETERS {angstrom}
     12.505600   0.000000   0.000000
     0.000000   12.523400   0.000000
     -0.227594   0.000000   10.274279
ATOMIC_POSITIONS {crystal}
C 0.336312  0.923503  0.503961
C 0.029158  0.026529  0.050204
C 0.396300  0.012782  0.546470
C 0.139649  0.995776  0.055621
C 0.416118  0.019836  0.680491
C 0.205924  0.061041  0.136436
C 0.176203  0.562359  0.518357
C 0.470927  0.466123  0.042326
C 0.227093  0.635561  0.607921
C 0.507107  0.379317  0.123287
C 0.283802  0.856804  0.596881
C 0.987177  0.101410  0.142556
C 0.383028  0.936671  0.767015
C 0.161597  0.145425  0.215350
C 0.104428  0.589604  0.768711
C 0.349602  0.387130  0.243056
C 0.067351  0.500402  0.691563
C 0.311145  0.476724  0.167141
C 0.099956  0.488473  0.560864
C 0.369162  0.517863  0.062218
C 0.445521  0.095895  0.451647
C 0.187783  0.897097  0.974287
C 0.053357  0.399915  0.466966
C 0.322172  0.618408  0.979358
C 0.766624  0.023605  0.568081
C 0.557426  0.053303  0.995077
C 0.875151  0.031171  0.536443
C 0.627579  0.970495  0.035662
C 0.942492  0.951100  0.590669
C 0.666510  0.977171  0.165756
C 0.722860  0.502304  0.539454
C 0.961863  0.536981  0.094765
C 0.758418  0.590701  0.619752
C 0.005910  0.443897  0.160534
C 0.725674  0.932606  0.636923
C 0.514665  0.127177  0.087614
C 0.899224  0.860046  0.658798
C 0.643636  0.069211  0.242532
C 0.579718  0.632252  0.669507
C 0.833980  0.368489  0.174539
C 0.542291  0.536845  0.602264
C 0.790445  0.454594  0.097735
C 0.613926  0.472223  0.532503
C 0.857096  0.532140  0.040857
C 0.921610  0.130109  0.458632
C 0.675358  0.888313  0.937643
C 0.573936  0.368517  0.458547
C 0.809020  0.620989  0.945850
H 0.542546  0.065774  0.893910
H 0.291871  0.050577  0.135207
H 0.204517  0.557328  0.419909
H 0.302836  0.668177  0.580963
H 0.090173  0.440606  0.179890
H 0.211787  0.818132  0.564665
H 0.447398  0.176498  0.059061
H 0.413687  0.937253  0.865311
H 0.214884  0.195394  0.271570
H 0.069076  0.603081  0.861808
H 0.307752  0.365729  0.329906
H 0.241666  0.519127  0.198219
H 0.715609  0.091353  0.551185
H 0.458166  0.088742  0.717860
H 0.780600  0.457907  0.484928
H 0.842787  0.609294  0.624597
H 0.582578  0.341083  0.103500
H 0.640486  0.927033  0.648847
H 0.902239  0.116720  0.141204
H 0.953533  0.799415  0.695550
H 0.687241  0.080664  0.332255
H 0.522414  0.682881  0.716385
H 0.780457  0.308774  0.210629
H 0.706470  0.470046  0.102338
H 0.425266  0.832410  0.300841
H 0.240127  0.824728  0.306233
H 0.845603  0.032941  0.930458
H 0.979305  0.097782  0.826025
H 0.889437  0.387209  0.717718
H 0.049833  0.298873  0.757101
H 0.651672  0.470960  0.902894
H 0.523659  0.385383  0.835114
H 0.110192  0.063297  0.684974
H 0.120626  0.991959  0.478919
H 0.817108  0.891811  0.319558
H 0.649392  0.810874  0.319153
H 0.364330  0.528997  0.739975
H 0.404349  0.380045  0.667295
H 0.100113  0.663087  0.230889
H 0.014692  0.741799  0.040559
N 0.311810  0.857842  0.727858
N 0.052949  0.163737  0.220141
N 0.189103  0.653088  0.731481
N 0.445495  0.337330  0.218113
N 0.792764  0.855071  0.690326
N 0.561391  0.138184  0.209536
N 0.687580  0.651645  0.689886
N 0.940865  0.364338  0.209040
Ni 0.253228  0.756725  0.865370
Ni 0.506846  0.235034  0.346451
Ni 0.740687  0.753574  0.827867
Ni 0.991675  0.264809  0.350611
O 0.110553  0.344673  0.377673
O 0.373377  0.674087  0.884781
O 0.389121  0.153208  0.360724
O 0.134382  0.839796  0.879959
O 0.475284  0.325044  0.470783
O 0.222274  0.661190  0.992897
O 0.021347  0.171281  0.477397
O 0.288133  0.854776  0.991067
O 0.626607  0.316699  0.363163
O 0.862371  0.674575  0.850472
O 0.870909  0.183949  0.359561
O 0.619325  0.832082  0.844025
O 0.952520  0.360491  0.471172
O 0.708229  0.659399  0.952786
O 0.544448  0.138576  0.468034
O 0.774991  0.848284  0.950884
P 0.331647  0.886676  0.335281
P 0.953221  0.010209  0.904689
P 0.994087  0.395904  0.769576
P 0.541013  0.483294  0.898976
P 0.080845  0.976899  0.604504
P 0.726537  0.862897  0.243721
P 0.409413  0.487740  0.628844
P 0.013285  0.665748  0.141079
