&CONTROL
   calculation = 'relax',
   prefix = 'NiPyC2_relax_sc211_ortho_functionalized_C-3CH3_lammps_vdw-df2_relax',
   pseudo_dir = './pseudo/',
   outdir = '/nfs/hpc/share/gantzlen'
   wf_collect = .FALSE.,
   nstep = 200,
/
&SYSTEM
   ibrav = 0,
   nat = 204,
   ntyp = 5.000000,
   tot_charge = 0.000000,
   ecutwfc = 100.000000,
   input_dft = 'vdw-df2',
   vdw_corr = 'grimme-d2',
   occupations = 'smearing',
   degauss = 0.200000,
   smearing = 'mv',
   nspin = 2 ,
   starting_magnetization(4) = 0.250000,
   tot_magnetization = 8.000000
/
&ELECTRONS
    electron_maxstep = 90.000000,
    scf_must_converge = .TRUE.,
    conv_thr = 1.D-6,
    mixing_mode = 'local-TF',
    diagonalization = 'david',
/
&IONS
   ion_dynamics = 'bfgs',
/
&CELL
   cell_dynamics = 'bfgs'
   cell_dofree = 'xyz'
/
ATOMIC_SPECIES
C    12.010700    C.pbesol-nc.UPF
H    1.007940    H.pbesol-n-nc.UPF
N    14.006700    N.pbesol-nc.UPF
Ni    58.693400    Ni.pbesol-n-nc.UPF
O    15.999400    O.pbesol-nc.UPF
K_POINTS {gamma}
CELL_PARAMETERS {angstrom}
     12.505600   0.000000   0.000000
     0.000000   12.523400   0.000000
     -0.227594   0.000000   10.274279
ATOMIC_POSITIONS {crystal}
C 0.382148  0.884792  0.532047
C 0.081658  0.078176  0.073980
C 0.428958  0.983511  0.569521
C 0.126626  0.980940  0.118602
C 0.406716  0.014170  0.694291
C 0.094552  0.962382  0.247738
C 0.093880  0.593485  0.535839
C 0.452627  0.458589  0.093837
C 0.169266  0.654024  0.624403
C 0.532705  0.409604  0.181093
C 0.308415  0.833903  0.619517
C 0.991917  0.127764  0.135817
C 0.389033  0.929724  0.787487
C 0.061544  0.059106  0.326972
C 0.118504  0.549613  0.796689
C 0.429801  0.463553  0.351267
C 0.093139  0.462473  0.698544
C 0.395262  0.555442  0.268953
C 0.056514  0.489378  0.571522
C 0.383574  0.537531  0.135580
C 0.490683  0.053287  0.472881
C 0.194589  0.898119  0.020753
C 0.991202  0.405367  0.472639
C 0.317512  0.610488  0.029938
C 0.750415  0.944743  0.500733
C 0.642637  0.177318  0.029656
C 0.805925  0.036489  0.543867
C 0.708360  0.087810  0.049553
C 0.877174  0.013945  0.632672
C 0.712102  0.050265  0.174908
C 0.752362  0.545276  0.546615
C 0.794435  0.399665  0.005431
C 0.767164  0.638541  0.618766
C 0.841576  0.319724  0.094068
C 0.733687  0.861635  0.594021
C 0.552743  0.193079  0.114839
C 0.864092  0.940400  0.729304
C 0.637847  0.084649  0.265405
C 0.611170  0.604460  0.741016
C 0.813032  0.435737  0.260811
C 0.578664  0.545362  0.629050
C 0.793472  0.522428  0.182146
C 0.656951  0.489948  0.560125
C 0.786039  0.509565  0.049110
C 0.847120  0.130404  0.466378
C 0.735432  0.007942  0.940994
C 0.641957  0.368243  0.545055
C 0.785583  0.618746  0.970880
C 0.487256  0.896937  0.857804
C 0.467257  0.795032  0.899854
C 0.528709  0.952154  0.975339
C 0.572579  0.885758  0.761424
C 0.147537  0.090480  0.431527
C 0.144775  0.186964  0.530539
C 0.151122  0.999992  0.524120
C 0.255054  0.087707  0.359189
C 0.024802  0.569535  0.877104
C 0.029209  0.645475  0.990026
C 0.991285  0.467534  0.932411
C 0.948246  0.610533  0.774572
C 0.339955  0.415093  0.430969
C 0.361845  0.321448  0.519632
C 0.250431  0.380874  0.340927
C 0.305200  0.504446  0.509346
C 0.965071  0.919886  0.804448
C 0.953062  0.872814  0.942088
C 0.011790  0.029807  0.828654
C 0.033670  0.852300  0.713431
C 0.436437  0.185587  0.052279
C 0.362478  0.260130  0.117750
C 0.371022  0.082715  0.060718
C 0.449301  0.215057  0.908867
C 0.573797  0.558570  0.861980
C 0.578187  0.618999  0.990396
C 0.583089  0.443557  0.862073
C 0.565817  0.696111  0.393449
C 0.003960  0.248407  0.908174
C 0.202339  0.195082  0.836681
C 0.171271  0.471260  0.107752
C 0.857962  0.286037  0.704460
H 0.383410  0.859679  0.431173
H 0.654145  0.227403  0.946031
H 0.954128  0.015363  0.594658
H 0.119235  0.888577  0.293677
H 0.084625  0.620023  0.436658
H 0.780956  0.378856  0.905843
H 0.240586  0.670849  0.580241
H 0.231775  0.824608  0.578138
H 0.502452  0.508423  0.633396
H 0.367200  0.629303  0.310689
H 0.746999  0.923815  0.399223
H 0.130797  0.128575  0.023706
H 0.428574  0.090756  0.722246
H 0.769766  0.989436  0.202514
H 0.799820  0.536553  0.464251
H 0.436080  0.428338  0.001610
H 0.828601  0.692572  0.588997
H 0.606169  0.378277  0.146766
H 0.677136  0.800925  0.569355
H 0.915620  0.129208  0.086899
H 0.652474  0.057157  0.357197
H 0.756471  0.424821  0.331682
H 0.074020  0.383441  0.731551
H 0.759158  0.592770  0.226058
H 0.476119  0.731833  0.826414
H 0.452655  0.782522  0.004805
H 0.452626  0.782521  0.004796
H 0.486226  0.941717  0.064892
H 0.589715  0.905138  0.024696
H 0.542618  0.030841  0.942421
H 0.543095  0.841864  0.674311
H 0.606868  0.964506  0.734631
H 0.628900  0.830382  0.801501
H 0.164152  0.265921  0.503810
H 0.205551  0.169213  0.604818
H 0.084526  0.194509  0.604894
H 0.108935  0.018077  0.609246
H 0.228664  0.001179  0.569407
H 0.122394  0.922721  0.489118
H 0.241406  0.111757  0.260079
H 0.289010  0.006327  0.350783
H 0.317407  0.138557  0.396291
H 0.071014  0.707175  0.952978
H 0.955857  0.673479  0.028397
H 0.059489  0.618299  0.082849
H 0.058432  0.417793  0.943180
H 0.969829  0.472678  0.033793
H 0.938274  0.425781  0.864168
H 0.973087  0.643964  0.684725
H 0.896854  0.544693  0.739037
H 0.921131  0.689786  0.796127
H 0.324123  0.251697  0.548002
H 0.386661  0.346418  0.619187
H 0.402131  0.268930  0.456896
H 0.279695  0.388258  0.247958
H 0.233474  0.295885  0.336597
H 0.180486  0.433261  0.343909
H 0.368944  0.555487  0.544642
H 0.260926  0.557355  0.442690
H 0.261130  0.476721  0.591335
H 0.903177  0.805253  0.931362
H 0.933401  0.935593  0.012916
H 0.005266  0.843701  0.017986
H 0.953041  0.069081  0.889531
H 0.089634  0.019037  0.865273
H 0.023436  0.089908  0.753247
H 0.001251  0.837840  0.613145
H 0.114378  0.881662  0.709869
H 0.050271  0.778202  0.755938
H 0.323736  0.318144  0.052499
H 0.287742  0.230654  0.146585
H 0.392700  0.272391  0.216417
H 0.384153  0.039163  0.153437
H 0.286253  0.092121  0.052770
H 0.364027  0.041773  0.969169
H 0.482498  0.289997  0.911412
H 0.510605  0.173238  0.854625
H 0.381501  0.217624  0.845607
H 0.606516  0.698785  0.977626
H 0.510500  0.635985  0.039227
H 0.613833  0.580046  0.074790
H 0.643253  0.411028  0.797788
H 0.603205  0.411821  0.955232
H 0.507352  0.422159  0.817270
H 0.570145  0.882636  0.289987
H 0.353665  0.534306  0.752790
H 0.442054  0.692290  0.621878
H 0.822186  0.186837  0.900423
H 0.136461  0.256309  0.172170
H 0.032730  0.370825  0.172459
H 0.016312  0.550116  0.264790
H 0.350996  0.381417  0.820062
H 0.211585  0.384084  0.905299
H 0.704680  0.152023  0.737745
H 0.230727  0.333802  0.691358
H 0.223737  0.015279  0.776470
N 0.317377  0.847581  0.752981
N 0.996139  0.138939  0.265041
N 0.175144  0.640030  0.759625
N 0.510190  0.396183  0.307589
N 0.786556  0.864837  0.716497
N 0.571707  0.171457  0.245057
N 0.719330  0.647311  0.747029
N 0.867454  0.348522  0.219820
Ni 0.252691  0.748902  0.901393
Ni 0.538993  0.260736  0.406837
Ni 0.754816  0.783872  0.881741
Ni 0.921528  0.257499  0.367167
O 0.038790  0.338557  0.389829
O 0.356227  0.645215  0.919686
O 0.551878  0.137875  0.505878
O 0.151341  0.847430  0.919641
O 0.545958  0.337584  0.556409
O 0.224914  0.662921  0.044186
O 0.941043  0.177159  0.496955
O 0.292120  0.851111  0.036381
O 0.674946  0.308466  0.445938
O 0.767021  0.644773  0.840010
O 0.801051  0.180100  0.367445
O 0.761045  0.909865  0.978005
O 0.887301  0.368304  0.481231
O 0.765869  0.707064  0.032185
O 0.551948  0.137781  0.506057
O 0.760698  0.909370  0.976468
