&CONTROL
   calculation = 'relax',
   prefix = 'NiPyC2_relax_sc211_ortho_functionalized_CH2-CH3_lammps_pbesol_relax',
   pseudo_dir = './pseudo/',
   outdir = '/nfs/hpc/share/gantzlen'
   wf_collect = .FALSE.,
   nstep = 200,
/
&SYSTEM
   ibrav = 0,
   nat = 156,
   ntyp = 5.000000,
   tot_charge = 0.000000,
   ecutwfc = 100.000000,
   
   vdw_corr = 'grimme-d2',
   occupations = 'smearing',
   degauss = 0.200000,
   smearing = 'mv',
   nspin = 2 ,
   starting_magnetization(4) = 0.250000,
   tot_magnetization = 8.000000
/
&ELECTRONS
    electron_maxstep = 90.000000,
    scf_must_converge = .TRUE.,
    conv_thr = 1.D-6,
    mixing_mode = 'local-TF',
    diagonalization = 'david',
/
&IONS
   ion_dynamics = 'bfgs',
/
&CELL
   cell_dynamics = 'bfgs'
   cell_dofree = 'xyz'
/
ATOMIC_SPECIES
C    12.010700    C.pbesol-nc.UPF
H    1.007940    H.pbesol-n-nc.UPF
N    14.006700    N.pbesol-nc.UPF
Ni    58.693400    Ni.pbesol-n-nc.UPF
O    15.999400    O.pbesol-nc.UPF
K_POINTS {gamma}
CELL_PARAMETERS {angstrom}
     12.505600   0.000000   0.000000
     0.000000   12.523400   0.000000
     -0.227594   0.000000   10.274279
ATOMIC_POSITIONS {crystal}
C 0.269005  0.021239  0.573886
C 0.101940  0.092080  0.000095
C 0.368841  0.036183  0.517994
C 0.173677  0.006114  0.032113
C 0.447194  0.958150  0.550406
C 0.198772  0.996606  0.165115
C 0.227084  0.543665  0.527023
C 0.370367  0.462300  0.985432
C 0.269565  0.629720  0.605383
C 0.403102  0.369379  0.058384
C 0.240197  0.915790  0.608595
C 0.042454  0.148506  0.100958
C 0.421939  0.873277  0.638180
C 0.161572  0.074047  0.257677
C 0.153743  0.582666  0.774403
C 0.403921  0.479994  0.242727
C 0.140566  0.478461  0.715383
C 0.416924  0.570894  0.164414
C 0.166784  0.461946  0.584231
C 0.395564  0.563723  0.032319
C 0.400534  0.142088  0.454555
C 0.223206  0.925587  0.925970
C 0.116829  0.366792  0.503633
C 0.363612  0.662890  0.957940
C 0.812862  0.952928  0.545394
C 0.497696  0.013957  0.051759
C 0.904507  0.014346  0.584395
C 0.598870  0.967708  0.073269
C 0.933711  0.001246  0.716693
C 0.657404  0.012238  0.177654
C 0.597092  0.600456  0.516351
C 0.947978  0.451857  0.051580
C 0.658485  0.670102  0.603224
C 0.010905  0.390015  0.146313
C 0.750384  0.893368  0.640659
C 0.457080  0.090422  0.145080
C 0.882163  0.921523  0.803076
C 0.627814  0.114497  0.234208
C 0.662777  0.529981  0.755416
C 0.878335  0.420157  0.301903
C 0.654314  0.456951  0.649822
C 0.825146  0.497273  0.215497
C 0.595232  0.489128  0.540700
C 0.859241  0.516503  0.089293
C 0.967129  0.097969  0.486980
C 0.647751  0.873221  0.989529
C 0.539733  0.406036  0.448234
C 0.801570  0.606592  0.996002
C 0.167776  0.858912  0.509064
C 0.067897  0.805724  0.561306
C 0.926043  0.176831  0.070417
C 0.905727  0.222488  0.933964
C 0.060400  0.624629  0.844623
C 0.076348  0.642912  0.992527
C 0.419820  0.272467  0.977460
C 0.313832  0.215885  0.951995
C 0.948782  0.885910  0.921325
C 0.930921  0.895013  0.069091
C 0.711880  0.171883  0.311805
C 0.702082  0.163424  0.461974
C 0.591544  0.498070  0.862491
C 0.643122  0.412140  0.949135
C 0.839780  0.418115  0.437864
C 0.886050  0.511683  0.517513
H 0.227396  0.088423  0.614398
H 0.460691  0.008142  0.956963
H 0.003297  0.043484  0.750676
H 0.253500  0.934698  0.197873
H 0.232776  0.547199  0.422799
H 0.966830  0.444941  0.950782
H 0.333017  0.677795  0.567028
H 0.086746  0.357123  0.117611
H 0.373183  0.102405  0.150426
H 0.484540  0.821454  0.674533
H 0.196787  0.072671  0.352183
H 0.375363  0.493751  0.337596
H 0.664261  0.372359  0.668465
H 0.422525  0.648733  0.210158
H 0.784772  0.956050  0.445322
H 0.093312  0.116711  0.900391
H 0.526646  0.964387  0.512478
H 0.726899  0.970344  0.215381
H 0.568342  0.630671  0.423311
H 0.337203  0.453860  0.887573
H 0.710453  0.723556  0.555228
H 0.666654  0.879913  0.620657
H 0.093556  0.418564  0.764221
H 0.757872  0.542742  0.250631
H 0.215136  0.800302  0.453485
H 0.138542  0.916460  0.434737
H 0.076122  0.717979  0.562814
H 0.998202  0.822333  0.495659
H 0.049572  0.835404  0.658656
H 0.875724  0.106828  0.077572
H 0.889470  0.227635  0.143054
H 0.976385  0.265069  0.896272
H 0.882639  0.158173  0.865716
H 0.837201  0.277693  0.935448
H 0.991718  0.571775  0.824403
H 0.037630  0.696835  0.791931
H 0.002785  0.644327  0.046060
H 0.129986  0.581927  0.037799
H 0.100115  0.725521  0.015986
H 0.492998  0.229074  0.000578
H 0.442759  0.298286  0.878326
H 0.327766  0.135584  0.910768
H 0.263755  0.261406  0.880509
H 0.268495  0.211824  0.043216
H 0.018724  0.931480  0.912093
H 0.971162  0.806115  0.904063
H 0.866653  0.948768  0.094079
H 0.002514  0.921762  0.123847
H 0.915492  0.814962  0.111486
H 0.783353  0.130128  0.281807
H 0.726141  0.253271  0.275173
H 0.659918  0.089615  0.489908
H 0.774997  0.165225  0.520693
H 0.667121  0.234654  0.505812
H 0.560304  0.567178  0.912426
H 0.517864  0.463397  0.817673
H 0.622440  0.331659  0.912238
H 0.730484  0.415116  0.944942
H 0.618456  0.421153  0.051559
H 0.843676  0.339956  0.486276
H 0.754340  0.429833  0.429253
H 0.970106  0.528525  0.492793
H 0.881839  0.494319  0.623160
H 0.840538  0.585604  0.495341
N 0.317806  0.856365  0.673678
N 0.081865  0.148247  0.229708
N 0.225957  0.655217  0.724321
N 0.418635  0.376769  0.195812
N 0.795318  0.858776  0.757705
N 0.526090  0.157901  0.213554
N 0.683221  0.638977  0.730661
N 0.969350  0.361570  0.264983
Ni 0.285255  0.776916  0.831780
Ni 0.469847  0.269797  0.338947
Ni 0.728835  0.743837  0.880146
Ni 0.036088  0.242849  0.383535
O 0.160177  0.318713  0.398077
O 0.409124  0.702206  0.847666
O 0.347506  0.193686  0.354749
O 0.165703  0.854896  0.849771
O 0.439010  0.367868  0.462355
O 0.268921  0.704876  0.973077
O 0.070923  0.132775  0.498936
O 0.325339  0.889615  0.931412
O 0.589849  0.347845  0.356400
O 0.850696  0.668327  0.907178
O 0.918379  0.165615  0.401938
O 0.601929  0.820017  0.886417
O 0.018216  0.326906  0.522588
O 0.698155  0.641764  0.002791
O 0.498728  0.180053  0.466289
O 0.746026  0.833807  0.010590
