&CONTROL
   calculation = 'relax',
   prefix = 'NiPyC2_relax_sc211_ortho_functionalized_PH2_lammps_vdw-df2_relax',
   pseudo_dir = './pseudo/',
   outdir = '/nfs/hpc/share/gantzlen'
   wf_collect = .FALSE.,
   nstep = 200,
/
&SYSTEM
   ibrav = 0,
   nat = 124,
   ntyp = 6.000000,
   tot_charge = 0.000000,
   ecutwfc = 100.000000,
   input_dft = 'vdw-df2',
   vdw_corr = 'grimme-d2',
   occupations = 'smearing',
   degauss = 0.200000,
   smearing = 'mv',
   nspin = 2 ,
   starting_magnetization(4) = 0.250000,
   tot_magnetization = 8.000000
/
&ELECTRONS
    electron_maxstep = 90.000000,
    scf_must_converge = .TRUE.,
    conv_thr = 1.D-6,
    mixing_mode = 'local-TF',
    diagonalization = 'david',
/
&IONS
   ion_dynamics = 'bfgs',
/
&CELL
   cell_dynamics = 'bfgs'
   cell_dofree = 'xyz'
/
ATOMIC_SPECIES
C    12.010700    C.pbesol-nc.UPF
H    1.007940    H.pbesol-n-nc.UPF
N    14.006700    N.pbesol-nc.UPF
Ni    58.693400    Ni.pbesol-n-nc.UPF
O    15.999400    O.pbesol-nc.UPF
P    30.973762    P.pbesol-n-nc.UPF
K_POINTS {gamma}
CELL_PARAMETERS {angstrom}
     12.505600   0.000000   0.000000
     0.000000   12.523400   0.000000
     -0.227594   0.000000   10.274279
ATOMIC_POSITIONS {crystal}
C 0.347533  0.912699  0.494782
C 0.030132  0.026001  0.048183
C 0.401068  0.009244  0.532219
C 0.133097  0.979311  0.070181
C 0.416149  0.023342  0.666732
C 0.185097  0.008981  0.187188
C 0.235080  0.520962  0.558550
C 0.490965  0.493347  0.052316
C 0.277064  0.603461  0.646861
C 0.514401  0.393475  0.116425
C 0.287610  0.852372  0.590138
C 0.986027  0.102166  0.140861
C 0.385279  0.942013  0.756440
C 0.136101  0.079986  0.278542
C 0.117657  0.596239  0.765504
C 0.342656  0.394937  0.204068
C 0.070338  0.524838  0.672081
C 0.334311  0.505645  0.177671
C 0.128864  0.481015  0.570874
C 0.394642  0.548509  0.077530
C 0.446252  0.094595  0.432408
C 0.191211  0.901872  0.970143
C 0.074344  0.393240  0.479200
C 0.348055  0.643393  0.994240
C 0.759964  0.002782  0.562238
C 0.579559  0.050820  0.992868
C 0.868285  0.033234  0.566452
C 0.655792  0.979574  0.042527
C 0.934839  0.974089  0.653024
C 0.698909  0.004900  0.166841
C 0.637260  0.567435  0.489619
C 0.897761  0.409716  0.994474
C 0.703287  0.629209  0.578603
C 0.953935  0.339449  0.087550
C 0.723905  0.906423  0.624919
C 0.526624  0.124738  0.076104
C 0.895479  0.883171  0.722336
C 0.660800  0.096867  0.237379
C 0.583016  0.587004  0.743491
C 0.896617  0.450027  0.255400
C 0.542219  0.498139  0.668240
C 0.879670  0.535854  0.165671
C 0.570398  0.485856  0.537604
C 0.860696  0.512546  0.034368
C 0.913073  0.134092  0.491794
C 0.689427  0.878052  0.963312
C 0.536775  0.384266  0.454147
C 0.804538  0.597101  0.939281
H 0.338192  0.893567  0.392624
H 0.558808  0.048227  0.890580
H 0.014897  0.001838  0.675290
H 0.262556  0.974919  0.210666
H 0.284660  0.491323  0.481466
H 0.892878  0.387831  0.892721
H 0.356671  0.634262  0.632350
H 0.007800  0.280987  0.049702
H 0.420502  0.943258  0.852381
H 0.483184  0.445781  0.709511
H 0.264099  0.548477  0.209209
H 0.702346  0.053784  0.515364
H 0.982998  0.003569  0.963014
H 0.459665  0.092365  0.702439
H 0.763114  0.956857  0.208457
H 0.641190  0.581361  0.385910
H 0.555149  0.533636  0.007152
H 0.593295  0.359094  0.107512
H 0.905243  0.130799  0.125257
H 0.947826  0.844180  0.792358
H 0.700408  0.118903  0.325828
H 0.545679  0.606954  0.830811
H 0.990870  0.494019  0.689043
H 0.855399  0.613107  0.202430
H 0.086679  0.790294  0.642674
H 0.159541  0.725551  0.447020
H 0.231729  0.187191  0.481912
H 0.143535  0.028243  0.531649
H 0.041026  0.685632  0.984196
H 0.123690  0.513836  0.999272
H 0.237625  0.237769  0.232695
H 0.144528  0.393675  0.172215
H 0.529506  0.801044  0.650910
H 0.579555  0.864845  0.432727
H 0.333451  0.080187  0.985782
H 0.407958  0.237124  0.917281
H 0.914658  0.674481  0.620611
H 0.828088  0.761589  0.445231
H 0.800567  0.425694  0.490800
H 0.764694  0.329497  0.298197
N 0.315290  0.860437  0.722211
N 0.046542  0.140027  0.246148
N 0.215034  0.646398  0.744772
N 0.441208  0.345274  0.196784
N 0.791529  0.847749  0.707923
N 0.570349  0.152728  0.198432
N 0.669099  0.647462  0.704932
N 0.951877  0.359574  0.221003
Ni 0.267852  0.763737  0.869267
Ni 0.495731  0.244022  0.333663
Ni 0.739908  0.742965  0.841115
Ni 0.995747  0.256840  0.371350
O 0.123376  0.328156  0.393306
O 0.394354  0.693779  0.892150
O 0.388867  0.147124  0.335148
O 0.141572  0.836410  0.881000
O 0.441852  0.331952  0.458854
O 0.247148  0.678321  0.004817
O 0.013238  0.168942  0.507681
O 0.294988  0.869860  0.984877
O 0.598876  0.335371  0.366125
O 0.854687  0.655188  0.845231
O 0.867807  0.186129  0.386885
O 0.626847  0.828369  0.870901
O 0.971483  0.361334  0.488484
O 0.709863  0.644882  0.964224
O 0.535680  0.150678  0.458138
O 0.788015  0.832633  0.967779
P 0.156223  0.807896  0.539916
P 0.193198  0.088413  0.436358
P 0.066534  0.588668  0.923590
P 0.229365  0.323647  0.151523
P 0.600397  0.851622  0.566953
P 0.397795  0.166761  0.022983
P 0.832923  0.670513  0.525478
P 0.791383  0.428171  0.354332
