&CONTROL
   calculation = 'relax',
   prefix = 'NiPyC2_relax_sc211_ortho_functionalized_CH2-NH2_lammps_pbesol_relax',
   pseudo_dir = './pseudo/',
   outdir = '/nfs/hpc/share/gantzlen'
   wf_collect = .FALSE.,
   nstep = 200,
/
&SYSTEM
   ibrav = 0,
   nat = 148,
   ntyp = 5.000000,
   tot_charge = 0.000000,
   ecutwfc = 100.000000,
   
   vdw_corr = 'grimme-d2',
   occupations = 'smearing',
   degauss = 0.200000,
   smearing = 'mv',
   nspin = 2 ,
   starting_magnetization(4) = 0.250000,
   tot_magnetization = 8.000000
/
&ELECTRONS
    electron_maxstep = 90.000000,
    scf_must_converge = .TRUE.,
    conv_thr = 1.D-6,
    mixing_mode = 'local-TF',
    diagonalization = 'david',
/
&IONS
   ion_dynamics = 'bfgs',
/
&CELL
   cell_dynamics = 'bfgs'
   cell_dofree = 'xyz'
/
ATOMIC_SPECIES
C    12.010700    C.pbesol-nc.UPF
H    1.007940    H.pbesol-n-nc.UPF
N    14.006700    N.pbesol-nc.UPF
Ni    58.693400    Ni.pbesol-n-nc.UPF
O    15.999400    O.pbesol-nc.UPF
K_POINTS {gamma}
CELL_PARAMETERS {angstrom}
     12.505600   0.000000   0.000000
     0.000000   12.523400   0.000000
     -0.227594   0.000000   10.274279
ATOMIC_POSITIONS {crystal}
C 0.260347  0.019818  0.576469
C 0.085299  0.067778  0.020357
C 0.365546  0.047201  0.552396
C 0.166345  0.991025  0.055211
C 0.439591  0.999026  0.638347
C 0.202462  0.998004  0.185355
C 0.226184  0.524797  0.540717
C 0.497588  0.527293  0.088935
C 0.268306  0.616098  0.612292
C 0.525824  0.429699  0.152044
C 0.236287  0.914983  0.623502
C 0.021545  0.117954  0.120999
C 0.415015  0.902263  0.702191
C 0.159207  0.076637  0.272541
C 0.135048  0.591169  0.770915
C 0.346706  0.376288  0.135547
C 0.103766  0.492070  0.710348
C 0.335891  0.443003  0.022613
C 0.143133  0.461183  0.588953
C 0.402015  0.532989  0.015375
C 0.399755  0.146943  0.471281
C 0.217493  0.906088  0.955801
C 0.094593  0.361689  0.511860
C 0.360043  0.639328  0.959771
C 0.820850  0.923655  0.534391
C 0.538492  0.047403  0.020553
C 0.880204  0.014140  0.580334
C 0.603434  0.964451  0.074080
C 0.888413  0.019822  0.717696
C 0.628802  0.974512  0.205938
C 0.661410  0.573022  0.517516
C 0.946811  0.440836  0.038840
C 0.725019  0.628415  0.615526
C 0.997334  0.363146  0.127241
C 0.756789  0.861859  0.624892
C 0.501041  0.135066  0.101796
C 0.865924  0.924589  0.795700
C 0.607347  0.071391  0.276670
C 0.606663  0.567511  0.774459
C 0.888617  0.424332  0.295187
C 0.566467  0.486829  0.686933
C 0.868649  0.522475  0.221799
C 0.591377  0.489389  0.554382
C 0.880069  0.523270  0.086091
C 0.940849  0.097103  0.486310
C 0.657799  0.873022  0.991388
C 0.539512  0.408052  0.453784
C 0.817479  0.606816  0.992615
C 0.156335  0.854225  0.538831
C 0.900497  0.105082  0.108786
C 0.374960  0.659342  0.568247
C 0.254828  0.373593  0.220443
C 0.959960  0.878188  0.865886
C 0.672268  0.090914  0.392933
C 0.839753  0.653252  0.585307
C 0.793903  0.379722  0.359000
H 0.203152  0.082185  0.586145
H 0.514384  0.044436  0.919003
H 0.931575  0.085839  0.761907
H 0.267248  0.947115  0.219446
H 0.267107  0.498449  0.456164
H 0.959679  0.434867  0.936174
H 0.055557  0.310482  0.087837
H 0.442044  0.188926  0.061088
H 0.473138  0.869069  0.767064
H 0.195118  0.085121  0.365540
H 0.095174  0.615344  0.858448
H 0.509580  0.428765  0.721515
H 0.263174  0.439702  0.963448
H 0.817840  0.904427  0.431803
H 0.071619  0.089684  0.919850
H 0.505150  0.045777  0.677208
H 0.676367  0.912356  0.252480
H 0.672063  0.591217  0.415852
H 0.547252  0.596953  0.101534
H 0.609038  0.413567  0.172928
H 0.686012  0.821311  0.589556
H 0.573463  0.572366  0.868504
H 0.046348  0.441636  0.756725
H 0.823361  0.586115  0.265928
H 0.113033  0.910647  0.472114
H 0.196155  0.800054  0.471559
H 0.007022  0.838981  0.607494
H 0.063612  0.723258  0.567559
H 0.871342  0.058599  0.192671
H 0.878591  0.057546  0.021115
H 0.762608  0.192398  0.116303
H 0.848426  0.233595  0.001189
H 0.423216  0.700612  0.641985
H 0.422580  0.589829  0.542210
H 0.438848  0.762005  0.434511
H 0.343576  0.678081  0.371067
H 0.204025  0.305488  0.191441
H 0.287761  0.361446  0.318078
H 0.157232  0.490915  0.133310
H 0.247374  0.538725  0.244519
H 0.021813  0.937501  0.855070
H 0.981689  0.805285  0.812899
H 0.006278  0.788082  0.026388
H 0.961024  0.909753  0.067596
H 0.750277  0.058203  0.372352
H 0.679713  0.175685  0.412353
H 0.611543  0.955970  0.482606
H 0.667176  0.054839  0.588856
H 0.841653  0.706031  0.498604
H 0.882226  0.692005  0.667724
H 0.968618  0.575537  0.510311
H 0.907025  0.511563  0.637947
H 0.768818  0.308381  0.302446
H 0.732763  0.441252  0.347381
H 0.778028  0.277667  0.520055
H 0.771750  0.406245  0.559818
N 0.313568  0.860924  0.700333
N 0.069864  0.137580  0.242413
N 0.219038  0.652102  0.726296
N 0.447260  0.358891  0.190423
N 0.787645  0.853618  0.754195
N 0.538297  0.149295  0.229429
N 0.686988  0.637952  0.741417
N 0.966128  0.352693  0.256185
N 0.078299  0.796531  0.612679
N 0.843216  0.205590  0.096783
N 0.365435  0.725032  0.451491
N 0.195851  0.475236  0.222234
N 0.950539  0.847629  0.002460
N 0.626545  0.036479  0.501829
N 0.896282  0.556546  0.553376
N 0.806465  0.352976  0.496994
Ni 0.279473  0.765065  0.848164
Ni 0.477810  0.266357  0.348059
Ni 0.736957  0.741727  0.882303
Ni 0.017519  0.236306  0.386076
O 0.141350  0.307109  0.414586
O 0.402942  0.692052  0.857534
O 0.353547  0.188709  0.358239
O 0.161988  0.839005  0.873839
O 0.437008  0.374642  0.455532
O 0.260919  0.676192  0.981675
O 0.042873  0.130997  0.504858
O 0.320010  0.870682  0.962829
O 0.594638  0.339960  0.377581
O 0.863503  0.669389  0.901246
O 0.893544  0.162565  0.395019
O 0.610507  0.812575  0.896405
O 0.993221  0.327000  0.520354
O 0.713679  0.639130  0.005296
O 0.496498  0.187182  0.487013
O 0.758811  0.837360  0.012238
