&CONTROL
   calculation = 'relax',
   prefix = 'NiPyC2_relax_sc211_meta_functionalized_CH2-NH2_pbesol_relax',
   pseudo_dir = './pseudo/',
   outdir = '/nfs/hpc/share/gantzlen'
   wf_collect = .FALSE.,
   nstep = 200,
/
&SYSTEM
   ibrav = 0,
   nat = 148,
   ntyp = 5.000000,
   tot_charge = 0.000000,
   ecutwfc = 100.000000,
   
   vdw_corr = 'grimme-d2',
   occupations = 'smearing',
   degauss = 0.200000,
   smearing = 'mv',
   nspin = 2 ,
   starting_magnetization(4) = 0.250000,
   tot_magnetization = 8.000000
/
&ELECTRONS
    electron_maxstep = 90.000000,
    scf_must_converge = .TRUE.,
    conv_thr = 1.D-6,
    mixing_mode = 'local-TF',
    diagonalization = 'david',
/
&IONS
   ion_dynamics = 'bfgs',
/
&CELL
   cell_dynamics = 'bfgs'
   cell_dofree = 'xyz'
/
ATOMIC_SPECIES
C    12.010700    C.pbesol-nc.UPF
H    1.007940    H.pbesol-n-nc.UPF
N    14.006700    N.pbesol-nc.UPF
Ni    58.693400    Ni.pbesol-n-nc.UPF
O    15.999400    O.pbesol-nc.UPF
K_POINTS {gamma}
CELL_PARAMETERS {angstrom}
     12.505600   0.000000   0.000000
     0.000000   12.523400   0.000000
     -0.227594   0.000000   10.274279
ATOMIC_POSITIONS {crystal}
C 0.288212  0.970050  0.521984
C 0.038379  0.031106  0.022308
C 0.390634  0.011770  0.546492
C 0.140244  0.987744  0.046146
C 0.451915  0.970202  0.650371
C 0.202520  0.028353  0.149893
C 0.208181  0.529704  0.526384
C 0.458545  0.471409  0.027904
C 0.245137  0.613331  0.606435
C 0.496819  0.388677  0.108617
C 0.249476  0.889206  0.603203
C 0.001069  0.112232  0.104247
C 0.407977  0.889383  0.727552
C 0.159935  0.109547  0.227812
C 0.088862  0.608983  0.727352
C 0.340890  0.391633  0.229394
C 0.046925  0.525079  0.651312
C 0.297658  0.474711  0.152754
C 0.108164  0.484270  0.550116
C 0.357832  0.515656  0.050638
C 0.433310  0.099319  0.466621
C 0.181517  0.899720  0.965672
C 0.067378  0.394474  0.470676
C 0.316043  0.604172  0.969107
C 0.788212  0.970050  0.521984
C 0.538379  0.031106  0.022308
C 0.890634  0.011770  0.546492
C 0.640244  0.987744  0.046146
C 0.951915  0.970202  0.650371
C 0.702520  0.028353  0.149893
C 0.708182  0.529704  0.526384
C 0.958546  0.471409  0.027904
C 0.745137  0.613331  0.606435
C 0.996819  0.388677  0.108617
C 0.749476  0.889206  0.603203
C 0.501069  0.112232  0.104247
C 0.907977  0.889383  0.727552
C 0.659934  0.109547  0.227812
C 0.588862  0.608983  0.727352
C 0.840890  0.391633  0.229394
C 0.546925  0.525079  0.651312
C 0.797658  0.474711  0.152754
C 0.608164  0.484270  0.550116
C 0.857832  0.515656  0.050638
C 0.933310  0.099319  0.466621
C 0.681517  0.899720  0.965672
C 0.567377  0.394474  0.470676
C 0.816043  0.604172  0.969107
C 0.217279  0.010977  0.408545
C 0.315555  0.986091  0.180391
C 0.278131  0.489934  0.415347
C 0.186025  0.518207  0.182282
C 0.065333  0.011014  0.681828
C 0.466790  0.992160  0.908444
C 0.778132  0.489934  0.415348
C 0.028294  0.511670  0.916685
H 0.322641  0.650506  0.592635
H 0.074968  0.352851  0.095028
H 0.170154  0.855123  0.588560
H 0.422322  0.147732  0.089886
H 0.453370  0.855173  0.808761
H 0.206239  0.143103  0.308797
H 0.043729  0.642944  0.806608
H 0.296378  0.357526  0.309051
H 0.468672  0.493231  0.673502
H 0.737124  0.999575  0.443113
H 0.986538  0.002692  0.943499
H 0.532062  0.998805  0.673520
H 0.782340  0.998665  0.172602
H 0.508641  0.500397  0.950548
H 0.822641  0.650506  0.592635
H 0.574968  0.352851  0.095028
H 0.670154  0.855123  0.588560
H 0.922322  0.147732  0.089886
H 0.953370  0.855173  0.808761
H 0.706240  0.143103  0.308797
H 0.543729  0.642944  0.806608
H 0.796378  0.357526  0.309051
H 0.968672  0.493231  0.673502
H 0.718952  0.505201  0.175264
H 0.260006  0.999771  0.315741
H 0.202183  0.097446  0.424141
H 0.126357  0.877840  0.368101
H 0.068999  0.993700  0.322178
H 0.365829  0.996952  0.093427
H 0.309484  0.899622  0.203446
H 0.385536  0.118198  0.264959
H 0.442371  0.001553  0.308760
H 0.232834  0.497808  0.321458
H 0.297219  0.404447  0.433320
H 0.362455  0.626073  0.373406
H 0.423606  0.511983  0.331372
H 0.191930  0.605272  0.202636
H 0.133430  0.505006  0.095168
H 0.178624  0.488297  0.378531
H 0.058754  0.497149  0.301888
H 0.115881  0.999776  0.595173
H 0.060207  0.097488  0.705213
H 0.133316  0.877849  0.766290
H 0.191367  0.993683  0.810979
H 0.452805  0.904896  0.918949
H 0.509114  0.007645  0.816367
H 0.317397  0.022055  0.979529
H 0.322173  0.018259  0.816203
H 0.732835  0.497807  0.321458
H 0.797220  0.404446  0.433322
H 0.862456  0.626072  0.373407
H 0.923608  0.511982  0.331374
H 0.983359  0.502653  0.822700
H 0.046063  0.597519  0.934042
H 0.114749  0.376576  0.876155
H 0.174308  0.491336  0.833436
N 0.308437  0.851253  0.704828
N 0.060729  0.148857  0.206052
N 0.186542  0.650310  0.705838
N 0.438810  0.350928  0.208041
N 0.808437  0.851253  0.704828
N 0.560729  0.148857  0.206052
N 0.686543  0.650310  0.705838
N 0.938810  0.350928  0.208041
N 0.113858  0.956983  0.396691
N 0.368882  0.039172  0.290682
N 0.378936  0.548010  0.404149
N 0.136253  0.466941  0.293514
N 0.117502  0.957002  0.792237
N 0.362745  0.045264  0.899969
N 0.878937  0.548009  0.404150
N 0.129988  0.455028  0.906329
Ni 0.247002  0.751486  0.836326
Ni 0.499972  0.247999  0.339178
Ni 0.747002  0.751486  0.836326
Ni 0.999972  0.247999  0.339178
O 0.122778  0.347689  0.382873
O 0.371208  0.650977  0.881292
O 0.377630  0.147507  0.377178
O 0.125098  0.852352  0.876261
O 0.473069  0.356160  0.482994
O 0.221137  0.641415  0.979877
O 0.028840  0.135158  0.481078
O 0.276686  0.862758  0.979399
O 0.622779  0.347689  0.382873
O 0.871208  0.650977  0.881292
O 0.877630  0.147507  0.377178
O 0.625098  0.852352  0.876261
O 0.973069  0.356160  0.482994
O 0.721137  0.641415  0.979877
O 0.528840  0.135158  0.481078
O 0.776686  0.862758  0.979399
