&CONTROL
   calculation='vc-relax',
   title='nipyc',
   prefix='nipyc',
   pseudo_dir='/pseudo/'
   ! etot_conv_thr=1.0d-6,
   ! forc_conv_thr=1.0d-5,
   wf_collect=.false.
/
&SYSTEM
   ibrav=0,
   nat=27,
   ntyp=5,
   tot_charge=0.0,
   ecutwfc=170.0,
   vdw_corr='grimme-d2',
   occupation='smearing',
   smearing='gaussian',
   nspin=2,
   starting_magnetization(Ni)=1.0
/
&ELECTRONS
   electron_maxstep=120,
   ! conv_thr=1.0d-7,
   ! mixing_mode='local-TF',
   ! mixing_beta=0.6,
   ! mixing_ndim=10,
   ! mixing_fixed_ns=0,
   diagonalization='david',
/
&IONS
   ion_dynamics='bfgs',
   ion_positions='default',
   pot_extrapolation='atomic',
   wfc_extrapolation='none',
   remove_rigid_rot=.false.,
/
&CELL
   cell_dynamics='bfgs'
   cell_dofree='xyz'
/
ATOMIC_SPECIES
Ni  58.69     ni_pbesol_v1.4.uspp.F.UPF
N   14.0067   N.pbesol-theos.UPF
H   1.0       H.pbesol-rrkjus_psl.1.0.0.UPF
O   15.999    O.pbesol-n-kjpaw_psl.0.1.UPF
C   12.01     C.pbesol-n-kjpaw_psl.1.0.0.UPF
CELL_PARAMETERS (angstrom)
 6.2528   7.66837e-16  -0.227594   
 0.0     12.5234        6.43209e-16
 0.0      0.0          10.2743
ATOMIC_POSTITIONS
Ni 0.4948, 0.75396, 0.83943
O  0.2413, 0.34962, 0.3929
O  0.7549, 0.13308, 0.3702
O  0.9369, 0.35223, 0.4973
O  0.0665, 0.11979, 0.4742
N  0.6279, 0.8429, 0.6962
N  0.3611, 0.6461, 0.7151
C  0.5878, 0.9593, 0.5134
H  0.5002, 0.9862, 0.4441
C  0.7932, 0.998, 0.5337
C  0.9171, 0.9546, 0.6354
H  0.06020, 0.9778, 0.6505
C  0.4077, 0.5191, 0.5441
H  0.4951, 0.491, 0.4778
C  0.4803, 0.6032, 0.6217
H  0.6191, 0.6313, 0.6079
C  0.5115, 0.8809, 0.595
H  0.3721, 0.853, 0.5791
C  0.8285, 0.8777, 0.7137
H  0.9133, 0.8483, 0.7826
C  0.1645, 0.6045, 0.7346
H  0.0793, 0.6346, 0.8007
C  0.0826, 0.5203, 0.6626
H  0.9446, 0.4925, 0.6791
C  0.2079, 0.477, 0.5646
C  0.878, 0.08929, 0.455
C  0.122, 0.3862, 0.4815
K_POINTS {gamma}
