 &control
    calculation='vc-relax',
    title='dmf-f',
    prefix='dmf-f'
    etot_conv_thr=1.0d-6,
    forc_conv_thr=1.0d-5,
    nstep=200
    wf_collect=.false.
 /
 &system
   ibrav=0,
   nat=120,
   ntyp=6,
   tot_charge=0.0,
   ecutwfc=170.0,
   vdw_corr='grimme-d2'
   london_s6=0.75,
   london_rcut=200,
   occupations='smearing',
   smearing='marzari-vanderbilt'
   degauss=0.05  
   nspin=2
   starting_magnetization(1)=0.25,
   starting_magnetization(2)=-0.25,
 /
 &electrons
   electron_maxstep=120,
   conv_thr=1.0d-7,
   mixing_mode='local-TF',   
   mixing_beta=0.6,
   mixing_ndim=10,
   mixing_fixed_ns=0,
   diagonalization='david',
 /
 &ions
   ion_dynamics='bfgs',
   ion_positions='default',
   pot_extrapolation='atomic',
   wfc_extrapolation='none',
   remove_rigid_rot=.false.,
   upscale=100.d0,
   bfgs_ndim=1,
   trust_radius_max=0.8D0,
   trust_radius_min=1.D-3,
   trust_radius_ini=0.5D0,
   w_1=0.01D0,
   w_2=0.5D0,
 /
 &cell
    cell_dynamics='bfgs',
    cell_dofree='all',
    press=0.0,
    press_conv_thr=1.d-1,
  /
ATOMIC_SPECIES
Tba 158.92 Tb.pbesol-n-nc.UPF
Tbb 158.92 Tb.pbesol-n-nc.UPF
C 12.01  C.pbesol-nc.UPF
O 15.999 O.pbesol-nc.UPF
H  1.0   H.pbesol-n-nc.UPF
N 14.007 N.pbesol-nc.UPF
CELL_PARAMETERS (angstrom)
  13.998899177  -0.001326024   0.307683846
  -0.000551017   6.383700843  -0.000919470
  -2.164672192  -0.001826953  14.171063274

ATOMIC_POSITIONS (crystal)
C        0.677418075   0.957336577   0.620952078
C        0.322536931   0.042111707   0.378240840
C        0.822211604   0.457704626   0.878399115
C        0.177006454   0.541958491   0.121245848
C        0.547193101   0.188266270   0.536699350
C        0.452738600   0.811160526   0.462425668
C        0.952475287   0.688384097   0.962773052
C        0.046570047   0.311240259   0.037215761
C        0.587882540   0.984417863   0.559228580
C        0.412083784   0.015035670   0.439900739
C        0.911678752   0.484595208   0.940223124
C        0.087378391   0.515030969   0.059713728
C        0.540712329   0.804533361   0.521717687
C        0.459238923   0.194922206   0.477400690
C        0.958667300   0.304676197   0.977834999
C        0.040354990   0.694947914   0.022166293
C        0.901299163   0.559546590   0.660862670
C        0.098722670   0.440144090   0.339145664
C        0.598349501   0.059428598   0.838572729
C        0.401219045   0.940749193   0.160573752
C        0.450385592   0.619357585   0.664198733
C        0.549503195   0.380576910   0.335001194
C        0.049269941   0.119909737   0.835294234
C        0.950288830   0.879708176   0.165097238
C        0.954369017   0.528447725   0.579658989
C        0.045685830   0.471228652   0.420387247
C        0.545450522   0.028653515   0.919936062
C        0.454342949   0.971857910   0.079389920
C        0.030374628   0.665692696   0.563422194
C        0.969672047   0.333988767   0.436630211
C        0.469302604   0.165546427   0.936092490
C        0.530528778   0.835049314   0.063266769
C        0.074776551   0.634389929   0.483221409
C        0.925255971   0.365317587   0.516816699
C        0.425018871   0.134449096   0.016370560
C        0.574835491   0.866157464   0.982999640
C        0.289719036   0.727638326   0.598499373
C        0.710157663   0.272661569   0.400999195
C        0.209851249   0.227783994   0.901502402
C        0.789732583   0.771422174   0.099098438
C        0.366566520   0.872885484   0.750479369
C        0.633441036   0.126399233   0.249187880
C        0.133391938   0.374225005   0.749696785
C        0.866428915   0.625312668   0.250897614
H        0.515749905   0.677738798   0.172056282
H        0.483971352   0.322739289   0.827246189
H        0.984615117   0.176462905   0.327927043
H        1.015375666   0.823270060   0.672100780
H        0.867132632   0.262253546   0.532829399
H        0.570976738   0.646617393   0.538245806
H        0.428952146   0.352839262   0.460896652
H        0.928366917   0.146769352   0.961315529
H        0.070677899   0.852841423   0.038678758
H        0.446572776   0.517711703   0.600931352
H        0.553205945   0.482497804   0.398173311
H        0.052878444   0.018023165   0.898443922
H        0.946500504   0.981635309   0.101946671
H        0.284218858   0.882311521   0.563522845
H        0.715472947   0.118384327   0.436334260
H        0.215224928   0.382213516   0.936746911
H        0.784463378   0.616943462   0.063897300
H        0.222049753   0.699188293   0.628115377
H        0.777895653   0.300347962   0.371391300
H        0.277620736   0.199726583   0.872018781
H        0.721953778   0.799254158   0.128596552
H        0.301143829   0.608754299   0.545474712
H        0.698794097   0.392226756   0.453741615
H        0.198278818   0.108489625   0.954278652
H        0.801201307   0.890728587   0.046289422
H        0.418957600   0.825473903   0.810566575
H        0.581065157   0.173338605   0.189006648
H        0.080964192   0.327649435   0.689475471
H        0.918959266   0.671959205   0.311024931
H        0.293142762   0.871274786   0.770380852
H        0.706879808   0.127801708   0.229322370
H        0.206831947   0.372644322   0.729831758
H        0.793057307   0.626809710   0.270930996
H        0.383681309   1.034082136   0.729390071
H        0.616330070  -0.034612062   0.270537534
H        0.116438099   0.535228311   0.771211860
H        0.883365798   0.464315697   0.229359749
H        0.366806882   0.237287155   0.032322282
H        0.633049400   0.763318725   0.967047140
H        0.132865172   0.737518659   0.467188972
N        0.370598894   0.727771683   0.673045085
N        0.629339240   0.272129417   0.326379076
N        0.129155515   0.228304082   0.826766904
N        0.870474796   0.771215604   0.173791977
O        0.726107189   0.116089651   0.656575958
O        0.273816533   0.883339955   0.342696969
O        0.773741671   0.616472684   0.842637778
O        0.225601273   0.383193554   0.156848594
O        0.587446148   0.366932804   0.567201255
O        0.412423158   0.632544140   0.431942704
O        0.912374873   0.867070131   0.932174654
O        0.086723949   0.132591576   0.067792088
O        0.713661340   0.775628682   0.642882369
O        0.286286587   0.223817033   0.356299822
O        0.785765278   0.276051284   0.856461617
O        0.213550627   0.723622978   0.142990809
O        0.834192912   0.435891302   0.673535755
O        0.165870316   0.563659107   0.326453942
O        0.665415291   0.935815055   0.825764759
O        0.333936563   0.064010293   0.173121595
O        0.525388251   0.628825750   0.723482909
O        0.474566568   0.370845919   0.275623645
O        0.974367496   0.129682136   0.775888584
O        0.025329630   0.870029990   0.224334046
O        0.926217162   0.718011528   0.715494097
O        0.073696275   0.281764509   0.284491030
O        0.573338335   0.217699172   0.783909443
O        0.426215769   0.782526519   0.215283606
O        0.061640486   0.822512267   0.623762525
O        0.938389820   0.177160899   0.376303499
O        0.437725785   0.321804361   0.875596240
O        0.562051088   0.678741783   0.123764701
Tba      0.673867764   0.447022986   0.710950556
Tbb      0.325935994   0.552493094   0.288080745
Tba      0.825899568   0.947564340   0.788558685
Tbb      0.173728494   0.052109914   0.211183172
K_POINTS {gamma}
