&CONTROL
   calculation = 'relax',
   prefix = 'NiPyC2_relax_sc211_meta_functionalized_CH2-NH2_pbesol_relax_frozen_parent_atoms_Round2',
   pseudo_dir = './pseudo/',
   outdir = '/nfs/hpc/share/gantzlen'
   wf_collect = .FALSE.,
   nstep = 200,
/
&SYSTEM
   ibrav = 0,
   nat = 148,
   ntyp = 5.000000,
   tot_charge = 0.000000,
   ecutwfc = 100.000000,
   
   vdw_corr = 'grimme-d2',
   occupations = 'smearing',
   degauss = 0.200000,
   smearing = 'mv',
   nspin = 2 ,
   starting_magnetization(4) = 0.250000,
   tot_magnetization = 8.000000
/
&ELECTRONS
    electron_maxstep = 90.000000,
    scf_must_converge = .TRUE.,
    conv_thr = 1.D-6,
    mixing_mode = 'local-TF',
    diagonalization = 'david',
/
&IONS
   ion_dynamics = 'bfgs',
/
&CELL
   cell_dynamics = 'bfgs'
   cell_dofree = 'xyz'
/
ATOMIC_SPECIES
C    12.010700    C.pbesol-nc.UPF
H    1.007940    H.pbesol-n-nc.UPF
N    14.006700    N.pbesol-nc.UPF
Ni    58.693400    Ni.pbesol-n-nc.UPF
O    15.999400    O.pbesol-nc.UPF
K_POINTS {gamma}
CELL_PARAMETERS {angstrom}
     12.505617   0.000000   0.000000
     0.000000   12.523412   0.000000
     -0.227590   0.000000   10.274290
ATOMIC_POSITIONS {crystal}
C 0.288212  0.970050  0.521984
C 0.038379  0.031106  0.022308
C 0.390634  0.011770  0.546492
C 0.140244  0.987744  0.046146
C 0.451915  0.970202  0.650371
C 0.202520  0.028353  0.149893
C 0.208181  0.529704  0.526384
C 0.458545  0.471409  0.027904
C 0.245137  0.613331  0.606435
C 0.496819  0.388677  0.108617
C 0.249476  0.889206  0.603203
C 0.001069  0.112232  0.104247
C 0.407977  0.889383  0.727552
C 0.159935  0.109547  0.227812
C 0.088862  0.608983  0.727352
C 0.340890  0.391633  0.229394
C 0.046925  0.525079  0.651312
C 0.297658  0.474711  0.152754
C 0.108164  0.484270  0.550116
C 0.357832  0.515656  0.050638
C 0.433310  0.099319  0.466621
C 0.181517  0.899720  0.965672
C 0.067378  0.394474  0.470676
C 0.316043  0.604172  0.969107
C 0.788212  0.970050  0.521984
C 0.538379  0.031106  0.022308
C 0.890634  0.011770  0.546492
C 0.640244  0.987744  0.046146
C 0.951915  0.970202  0.650371
C 0.702520  0.028353  0.149893
C 0.708182  0.529704  0.526384
C 0.958546  0.471409  0.027904
C 0.745137  0.613331  0.606435
C 0.996819  0.388677  0.108617
C 0.749476  0.889206  0.603203
C 0.501069  0.112232  0.104247
C 0.907977  0.889383  0.727552
C 0.659934  0.109547  0.227812
C 0.588862  0.608983  0.727352
C 0.840890  0.391633  0.229394
C 0.546925  0.525079  0.651312
C 0.797658  0.474711  0.152754
C 0.608164  0.484270  0.550116
C 0.857832  0.515656  0.050638
C 0.933310  0.099319  0.466621
C 0.681517  0.899720  0.965672
C 0.567377  0.394474  0.470676
C 0.816043  0.604172  0.969107
C 0.545753  0.013089  0.710229
C 0.275876  0.949529  0.206566
C 0.935644  0.493681  0.657138
C 0.186379  0.506341  0.159185
C 0.707018  0.011249  0.436564
C 0.782154  0.951390  0.200637
C 0.471651  0.449111  0.705499
C 0.721516  0.550522  0.205318
H 0.237124  0.999575  0.443113
H 0.486538  0.002692  0.943499
H 0.032063  0.998805  0.673520
H 0.258700  0.500895  0.449282
H 0.008641  0.500397  0.950548
H 0.322641  0.650506  0.592635
H 0.074968  0.352851  0.095028
H 0.170154  0.855123  0.588560
H 0.422322  0.147732  0.089886
H 0.453370  0.855173  0.808761
H 0.206239  0.143103  0.308797
H 0.043729  0.642944  0.806608
H 0.296378  0.357526  0.309051
H 0.986538  0.002692  0.943499
H 0.758700  0.500895  0.449282
H 0.508641  0.500397  0.950548
H 0.822641  0.650506  0.592635
H 0.574968  0.352851  0.095028
H 0.670154  0.855123  0.588560
H 0.922322  0.147732  0.089886
H 0.953370  0.855173  0.808761
H 0.706240  0.143103  0.308797
H 0.543729  0.642944  0.806608
H 0.796378  0.357526  0.309051
H 0.560314  0.136492  0.576259
H 0.601607  0.959660  0.759614
H 0.500112  0.167709  0.739088
H 0.629826  0.140742  0.778825
H 0.323612  0.901334  0.042600
H 0.245450  0.867410  0.210919
H 0.396812  0.040679  0.272675
H 0.405503  0.904027  0.312758
H 0.938757  0.372761  0.566818
H 0.888238  0.507142  0.568598
H 0.912650  0.436561  0.843428
H 0.799351  0.446516  0.739899
H 0.183229  0.613780  0.057860
H 0.138477  0.490349  0.071384
H 0.161909  0.564138  0.345298
H 0.049531  0.553419  0.240622
H 0.752723  0.030477  0.350876
H 0.681173  0.089383  0.470452
H 0.639378  0.866996  0.383497
H 0.568027  0.975398  0.339160
H 0.825145  0.904053  0.038279
H 0.751436  0.869606  0.209276
H 0.915911  0.035661  0.251532
H 0.921555  0.898131  0.282631
H 0.428017  0.395267  0.546232
H 0.498846  0.365779  0.711637
H 0.356518  0.545692  0.775001
H 0.341396  0.408576  0.807616
H 0.675211  0.601566  0.040900
H 0.746335  0.634652  0.206977
H 0.608803  0.453004  0.278275
H 0.590322  0.590610  0.306061
N 0.308437  0.851253  0.704828
N 0.060729  0.148857  0.206052
N 0.186542  0.650310  0.705838
N 0.438810  0.350928  0.208041
N 0.808437  0.851253  0.704828
N 0.560729  0.148857  0.206052
N 0.686543  0.650310  0.705838
N 0.938810  0.350928  0.208041
N 0.566127  0.121440  0.719072
N 0.372847  0.963049  0.255977
N 0.880612  0.451046  0.752523
N 0.130779  0.549724  0.253836
N 0.617537  0.942855  0.408743
N 0.883477  0.961233  0.239118
N 0.378193  0.467737  0.757188
N 0.628933  0.531052  0.258375
Ni 0.247002  0.751486  0.836326
Ni 0.499972  0.247999  0.339178
Ni 0.747002  0.751486  0.836326
Ni 0.999972  0.247999  0.339178
O 0.122778  0.347689  0.382873
O 0.371208  0.650977  0.881292
O 0.377630  0.147507  0.377178
O 0.125098  0.852352  0.876261
O 0.473069  0.356160  0.482994
O 0.221137  0.641415  0.979877
O 0.028840  0.135158  0.481078
O 0.276686  0.862758  0.979399
O 0.622779  0.347689  0.382873
O 0.871208  0.650977  0.881292
O 0.877630  0.147507  0.377178
O 0.625098  0.852352  0.876261
O 0.973069  0.356160  0.482994
O 0.721137  0.641415  0.979877
O 0.528840  0.135158  0.481078
O 0.776686  0.862758  0.979399
