&CONTROL
   calculation = 'relax',
   prefix = 'NiPyC2_relax_sc211_meta_functionalized_O-CH2-CH2-CH3_pbesol_relax_frozen_parent_atoms',
   pseudo_dir = './pseudo/',
   outdir = '/nfs/hpc/share/gantzlen'
   wf_collect = .FALSE.,
   nstep = 200,
/
&SYSTEM
   ibrav = 0,
   nat = 188,
   ntyp = 5.000000,
   tot_charge = 0.000000,
   ecutwfc = 100.000000,
   
   vdw_corr = 'grimme-d2',
   occupations = 'smearing',
   degauss = 0.200000,
   smearing = 'mv',
   nspin = 2 ,
   starting_magnetization(4) = 0.250000,
   tot_magnetization = 8.000000
/
&ELECTRONS
    electron_maxstep = 40.000000,
    scf_must_converge = .FALSE.,
    conv_thr = 5.D-6,
    mixing_mode = 'local-TF',
    diagonalization = 'david',
/
&IONS
   ion_dynamics = 'bfgs',
/
&CELL
   cell_dynamics = 'bfgs'
   cell_dofree = 'xyz'
/
ATOMIC_SPECIES
C    12.010700    C.pbesol-nc.UPF
H    1.007940    H.pbesol-n-nc.UPF
N    14.006700    N.pbesol-nc.UPF
Ni    58.693400    Ni.pbesol-n-nc.UPF
O    15.999400    O.pbesol-nc.UPF
K_POINTS {gamma}
CELL_PARAMETERS {angstrom}
     12.505600   0.000000   0.000000
     0.000000   12.523400   0.000000
     -0.227594   0.000000   10.274279
ATOMIC_POSITIONS {crystal}
C 0.288212  0.970050  0.521984 0 0 0
C 0.038379  0.031106  0.022308 0 0 0
C 0.390634  0.011770  0.546492 0 0 0
C 0.140244  0.987744  0.046146 0 0 0
C 0.451915  0.970202  0.650371 0 0 0
C 0.202520  0.028353  0.149893 0 0 0
C 0.208181  0.529704  0.526384 0 0 0
C 0.458545  0.471409  0.027904 0 0 0
C 0.245137  0.613331  0.606435 0 0 0
C 0.496819  0.388677  0.108617 0 0 0
C 0.249476  0.889206  0.603203 0 0 0
C 0.001069  0.112232  0.104247 0 0 0
C 0.407977  0.889383  0.727552 0 0 0
C 0.159935  0.109547  0.227812 0 0 0
C 0.088862  0.608983  0.727352 0 0 0
C 0.340890  0.391633  0.229394 0 0 0
C 0.046925  0.525079  0.651312 0 0 0
C 0.297658  0.474711  0.152754 0 0 0
C 0.108164  0.484270  0.550116 0 0 0
C 0.357832  0.515656  0.050638 0 0 0
C 0.433310  0.099319  0.466621 0 0 0
C 0.181517  0.899720  0.965672 0 0 0
C 0.067378  0.394474  0.470676 0 0 0
C 0.316043  0.604172  0.969107 0 0 0
C 0.788212  0.970050  0.521984 0 0 0
C 0.538379  0.031106  0.022308 0 0 0
C 0.890634  0.011770  0.546492 0 0 0
C 0.640244  0.987744  0.046146 0 0 0
C 0.951915  0.970202  0.650371 0 0 0
C 0.702520  0.028353  0.149893 0 0 0
C 0.708182  0.529704  0.526384 0 0 0
C 0.958546  0.471409  0.027904 0 0 0
C 0.745137  0.613331  0.606435 0 0 0
C 0.996819  0.388677  0.108617 0 0 0
C 0.749476  0.889206  0.603203 0 0 0
C 0.501069  0.112232  0.104247 0 0 0
C 0.907977  0.889383  0.727552 0 0 0
C 0.659934  0.109547  0.227812 0 0 0
C 0.588862  0.608983  0.727352 0 0 0
C 0.840890  0.391633  0.229394 0 0 0
C 0.546925  0.525079  0.651312 0 0 0
C 0.797658  0.474711  0.152754 0 0 0
C 0.608164  0.484270  0.550116 0 0 0
C 0.857832  0.515656  0.050638 0 0 0
C 0.933310  0.099319  0.466621 0 0 0
C 0.681517  0.899720  0.965672 0 0 0
C 0.567377  0.394474  0.470676 0 0 0
C 0.816043  0.604172  0.969107 0 0 0
C 0.621343  0.974809  0.773717 1 1 1
C 0.725775  0.037674  0.767430 1 1 1
C 0.804578  0.003286  0.874904 1 1 1
C 0.372427  0.021385  0.272041 1 1 1
C 0.476038  0.957277  0.264773 1 1 1
C 0.555753  0.990444  0.371837 1 1 1
C 0.880041  0.515559  0.770228 1 1 1
C 0.778216  0.448259  0.762859 1 1 1
C 0.699921  0.481234  0.867323 1 1 1
C 0.131300  0.483068  0.272959 1 1 1
C 0.028703  0.549200  0.265805 1 1 1
C 0.951343  0.515963  0.371181 1 1 1
C 0.625918  0.974794  0.384637 1 1 1
C 0.586697  0.037713  0.265521 1 1 1
C 0.474257  0.003357  0.222731 1 1 1
C 0.872427  0.021386  0.272042 1 1 1
C 0.976038  0.957278  0.264774 1 1 1
C 0.055753  0.990446  0.371838 1 1 1
C 0.380041  0.515559  0.770228 1 1 1
C 0.278216  0.448259  0.762859 1 1 1
C 0.199921  0.481234  0.867323 1 1 1
C 0.118166  0.473292  0.894285 1 1 1
C 0.156646  0.536436  0.777081 1 1 1
C 0.267257  0.499522  0.736312 1 1 1
H 0.237124  0.999575  0.443113 0 0 0
H 0.486538  0.002692  0.943499 0 0 0
H 0.032063  0.998805  0.673520 0 0 0
H 0.258700  0.500895  0.449282 0 0 0
H 0.322641  0.650506  0.592635 0 0 0
H 0.074968  0.352851  0.095028 0 0 0
H 0.170154  0.855123  0.588560 0 0 0
H 0.422322  0.147732  0.089886 0 0 0
H 0.453370  0.855173  0.808761 0 0 0
H 0.206239  0.143103  0.308797 0 0 0
H 0.043729  0.642944  0.806608 0 0 0
H 0.296378  0.357526  0.309051 0 0 0
H 0.986538  0.002692  0.943499 0 0 0
H 0.758700  0.500895  0.449282 0 0 0
H 0.508641  0.500397  0.950548 0 0 0
H 0.822641  0.650506  0.592635 0 0 0
H 0.574968  0.352851  0.095028 0 0 0
H 0.670154  0.855123  0.588560 0 0 0
H 0.922322  0.147732  0.089886 0 0 0
H 0.953370  0.855173  0.808761 0 0 0
H 0.706240  0.143103  0.308797 0 0 0
H 0.543729  0.642944  0.806608 0 0 0
H 0.796378  0.357526  0.309051 0 0 0
H 0.718952  0.505201  0.175264 0 0 0
H 0.638547  0.888225  0.761942 1 1 1
H 0.584137  0.988942  0.869540 1 1 1
H 0.708635  0.124299  0.778186 1 1 1
H 0.762663  0.024286  0.671346 1 1 1
H 0.770024  0.017451  0.972056 1 1 1
H 0.879505  0.050293  0.867781 1 1 1
H 0.824184  0.917194  0.864959 1 1 1
H 0.335508  0.007463  0.368080 1 1 1
H 0.390630  0.107783  0.260488 1 1 1
H 0.512629  0.970453  0.168472 1 1 1
H 0.457893  0.870838  0.275312 1 1 1
H 0.576361  0.076317  0.362086 1 1 1
H 0.630054  0.942550  0.364004 1 1 1
H 0.521492  0.976461  0.469187 1 1 1
H 0.858986  0.601112  0.755675 1 1 1
H 0.919520  0.504736  0.867416 1 1 1
H 0.799190  0.362644  0.776391 1 1 1
H 0.739081  0.458346  0.665438 1 1 1
H 0.736775  0.470291  0.965771 1 1 1
H 0.626899  0.431000  0.859475 1 1 1
H 0.676520  0.566227  0.854549 1 1 1
H 0.171161  0.494885  0.369750 1 1 1
H 0.111136  0.397208  0.259322 1 1 1
H 0.989178  0.538126  0.168771 1 1 1
H 0.048781  0.635116  0.278428 1 1 1
H 0.928835  0.430646  0.359328 1 1 1
H 0.877733  0.565345  0.363471 1 1 1
H 0.988583  0.527870  0.469253 1 1 1
H 0.627370  0.888219  0.360443 1 1 1
H 0.570820  0.988901  0.466408 1 1 1
H 0.585971  0.124328  0.289215 1 1 1
H 0.642122  0.024351  0.183994 1 1 1
H 0.417063  0.017498  0.302104 1 1 1
H 0.448045  0.050403  0.136174 1 1 1
H 0.473349  0.917276  0.196627 1 1 1
H 0.835507  0.007463  0.368080 1 1 1
H 0.890630  0.107784  0.260489 1 1 1
H 0.012629  0.970455  0.168473 1 1 1
H 0.957894  0.870840  0.275313 1 1 1
H 0.076360  0.076319  0.362086 1 1 1
H 0.130054  0.942553  0.364005 1 1 1
H 0.021492  0.976463  0.469188 1 1 1
H 0.358986  0.601112  0.755675 1 1 1
H 0.419520  0.504736  0.867416 1 1 1
H 0.299190  0.362644  0.776391 1 1 1
H 0.239081  0.458346  0.665438 1 1 1
H 0.236775  0.470291  0.965771 1 1 1
H 0.126899  0.431000  0.859475 1 1 1
H 0.176520  0.566227  0.854549 1 1 1
H 0.113860  0.387063  0.868642 1 1 1
H 0.175324  0.484995  0.977568 1 1 1
H 0.160218  0.622731  0.802209 1 1 1
H 0.099188  0.525483  0.694048 1 1 1
H 0.326460  0.511228  0.817244 1 1 1
H 0.292966  0.546792  0.651113 1 1 1
H 0.265284  0.413743  0.708821 1 1 1
N 0.308437  0.851253  0.704828 0 0 0
N 0.060729  0.148857  0.206052 0 0 0
N 0.186542  0.650310  0.705838 0 0 0
N 0.438810  0.350928  0.208041 0 0 0
N 0.808437  0.851253  0.704828 0 0 0
N 0.560729  0.148857  0.206052 0 0 0
N 0.686543  0.650310  0.705838 0 0 0
N 0.938810  0.350928  0.208041 0 0 0
Ni 0.247002  0.751486  0.836326 0 0 0
Ni 0.499972  0.247999  0.339178 0 0 0
Ni 0.747002  0.751486  0.836326 0 0 0
Ni 0.999972  0.247999  0.339178 0 0 0
O 0.122778  0.347689  0.382873 0 0 0
O 0.371208  0.650977  0.881292 0 0 0
O 0.377630  0.147507  0.377178 0 0 0
O 0.125098  0.852352  0.876261 0 0 0
O 0.473069  0.356160  0.482994 0 0 0
O 0.221137  0.641415  0.979877 0 0 0
O 0.028840  0.135158  0.481078 0 0 0
O 0.276686  0.862758  0.979399 0 0 0
O 0.622779  0.347689  0.382873 0 0 0
O 0.871208  0.650977  0.881292 0 0 0
O 0.877630  0.147507  0.377178 0 0 0
O 0.625098  0.852352  0.876261 0 0 0
O 0.973069  0.356160  0.482994 0 0 0
O 0.721137  0.641415  0.979877 0 0 0
O 0.528840  0.135158  0.481078 0 0 0
O 0.776686  0.862758  0.979399 0 0 0
O 0.552643  0.008518  0.674916 1 1 1
O 0.302867  0.988760  0.173575 1 1 1
O 0.948365  0.482994  0.674151 1 1 1
O 0.198735  0.515827  0.176045 1 1 1
O 0.727713  0.008475  0.419798 1 1 1
O 0.802867  0.988760  0.173576 1 1 1
O 0.448365  0.482994  0.674151 1 1 1
O 0.018025  0.509328  0.927659 1 1 1
