&CONTROL
   calculation = 'relax',
   prefix = 'NiPyC2_relax_sc211_meta_functionalized_O-CH3_pbesol_relax_frozen_parent_atoms',
   pseudo_dir = './pseudo/',
   outdir = '/nfs/hpc/share/gantzlen'
   wf_collect = .FALSE.,
   nstep = 200,
/
&SYSTEM
   ibrav = 0,
   nat = 140,
   ntyp = 5.000000,
   tot_charge = 0.000000,
   ecutwfc = 100.000000,
   
   vdw_corr = 'grimme-d2',
   occupations = 'smearing',
   degauss = 0.200000,
   smearing = 'mv',
   nspin = 2 ,
   starting_magnetization(4) = 0.250000,
   tot_magnetization = 8.000000
/
&ELECTRONS
    electron_maxstep = 40.000000,
    scf_must_converge = .FALSE.,
    conv_thr = 5.D-6,
    mixing_mode = 'local-TF',
    diagonalization = 'david',
/
&IONS
   ion_dynamics = 'bfgs',
/
&CELL
   cell_dynamics = 'bfgs'
   cell_dofree = 'xyz'
/
ATOMIC_SPECIES
C    12.010700    C.pbesol-nc.UPF
H    1.007940    H.pbesol-n-nc.UPF
N    14.006700    N.pbesol-nc.UPF
Ni    58.693400    Ni.pbesol-n-nc.UPF
O    15.999400    O.pbesol-nc.UPF
K_POINTS {gamma}
CELL_PARAMETERS {angstrom}
     12.505600   0.000000   0.000000
     0.000000   12.523400   0.000000
     -0.227594   0.000000   10.274279
ATOMIC_POSITIONS {crystal}
C 0.288212  0.970050  0.521984 0 0 0
C 0.038379  0.031106  0.022308 0 0 0
C 0.390634  0.011770  0.546492 0 0 0
C 0.140244  0.987744  0.046146 0 0 0
C 0.451915  0.970202  0.650371 0 0 0
C 0.202520  0.028353  0.149893 0 0 0
C 0.208181  0.529704  0.526384 0 0 0
C 0.458545  0.471409  0.027904 0 0 0
C 0.245137  0.613331  0.606435 0 0 0
C 0.496819  0.388677  0.108617 0 0 0
C 0.249476  0.889206  0.603203 0 0 0
C 0.001069  0.112232  0.104247 0 0 0
C 0.407977  0.889383  0.727552 0 0 0
C 0.159935  0.109547  0.227812 0 0 0
C 0.088862  0.608983  0.727352 0 0 0
C 0.340890  0.391633  0.229394 0 0 0
C 0.046925  0.525079  0.651312 0 0 0
C 0.297658  0.474711  0.152754 0 0 0
C 0.108164  0.484270  0.550116 0 0 0
C 0.357832  0.515656  0.050638 0 0 0
C 0.433310  0.099319  0.466621 0 0 0
C 0.181517  0.899720  0.965672 0 0 0
C 0.067378  0.394474  0.470676 0 0 0
C 0.316043  0.604172  0.969107 0 0 0
C 0.788212  0.970050  0.521984 0 0 0
C 0.538379  0.031106  0.022308 0 0 0
C 0.890634  0.011770  0.546492 0 0 0
C 0.640244  0.987744  0.046146 0 0 0
C 0.951915  0.970202  0.650371 0 0 0
C 0.702520  0.028353  0.149893 0 0 0
C 0.708182  0.529704  0.526384 0 0 0
C 0.958546  0.471409  0.027904 0 0 0
C 0.745137  0.613331  0.606435 0 0 0
C 0.996819  0.388677  0.108617 0 0 0
C 0.749476  0.889206  0.603203 0 0 0
C 0.501069  0.112232  0.104247 0 0 0
C 0.907977  0.889383  0.727552 0 0 0
C 0.659934  0.109547  0.227812 0 0 0
C 0.588862  0.608983  0.727352 0 0 0
C 0.840890  0.391633  0.229394 0 0 0
C 0.546925  0.525079  0.651312 0 0 0
C 0.797658  0.474711  0.152754 0 0 0
C 0.608164  0.484270  0.550116 0 0 0
C 0.857832  0.515656  0.050638 0 0 0
C 0.933310  0.099319  0.466621 0 0 0
C 0.681517  0.899720  0.965672 0 0 0
C 0.567377  0.394474  0.470676 0 0 0
C 0.816043  0.604172  0.969107 0 0 0
C 0.621119  0.974621  0.773781 1 1 1
C 0.875731  0.029556  0.885872 1 1 1
C 0.367311  0.529704  0.392568 1 1 1
C 0.618120  0.473102  0.894557 1 1 1
C 0.625965  0.974606  0.384913 1 1 1
C 0.872197  0.021561  0.272125 1 1 1
C 0.867312  0.529703  0.392569 1 1 1
C 0.631528  0.482887  0.273040 1 1 1
H 0.237124  0.999575  0.443113 0 0 0
H 0.486538  0.002692  0.943499 0 0 0
H 0.032063  0.998805  0.673520 0 0 0
H 0.282340  0.998665  0.172602 0 0 0
H 0.008641  0.500397  0.950548 0 0 0
H 0.322641  0.650506  0.592635 0 0 0
H 0.074968  0.352851  0.095028 0 0 0
H 0.170154  0.855123  0.588560 0 0 0
H 0.422322  0.147732  0.089886 0 0 0
H 0.453370  0.855173  0.808761 0 0 0
H 0.206239  0.143103  0.308797 0 0 0
H 0.043729  0.642944  0.806608 0 0 0
H 0.296378  0.357526  0.309051 0 0 0
H 0.468672  0.493231  0.673502 0 0 0
H 0.218952  0.505201  0.175264 0 0 0
H 0.822641  0.650506  0.592635 0 0 0
H 0.574968  0.352851  0.095028 0 0 0
H 0.670154  0.855123  0.588560 0 0 0
H 0.922322  0.147732  0.089886 0 0 0
H 0.953370  0.855173  0.808761 0 0 0
H 0.706240  0.143103  0.308797 0 0 0
H 0.543729  0.642944  0.806608 0 0 0
H 0.796378  0.357526  0.309051 0 0 0
H 0.968672  0.493231  0.673502 0 0 0
H 0.696887  0.020364  0.769043 1 1 1
H 0.585122  0.989355  0.869998 1 1 1
H 0.639645  0.888435  0.762152 1 1 1
H 0.846486  0.984559  0.799194 1 1 1
H 0.819836  0.015358  0.966598 1 1 1
H 0.877759  0.115814  0.860814 1 1 1
H 0.395567  0.483731  0.307716 1 1 1
H 0.362305  0.615332  0.364863 1 1 1
H 0.425638  0.518681  0.474577 1 1 1
H 0.645909  0.519052  0.809449 1 1 1
H 0.614459  0.387270  0.867524 1 1 1
H 0.676068  0.485400  0.976686 1 1 1
H 0.597640  0.020387  0.298418 1 1 1
H 0.570068  0.989314  0.465503 1 1 1
H 0.626754  0.888430  0.359306 1 1 1
H 0.947369  0.974921  0.266670 1 1 1
H 0.891715  0.107548  0.260735 1 1 1
H 0.836472  0.007001  0.368538 1 1 1
H 0.895568  0.483730  0.307718 1 1 1
H 0.862306  0.615331  0.364863 1 1 1
H 0.925638  0.518680  0.474579 1 1 1
H 0.557089  0.530997  0.267670 1 1 1
H 0.670216  0.495357  0.370205 1 1 1
H 0.610061  0.397460  0.259558 1 1 1
N 0.308437  0.851253  0.704828 0 0 0
N 0.060729  0.148857  0.206052 0 0 0
N 0.186542  0.650310  0.705838 0 0 0
N 0.438810  0.350928  0.208041 0 0 0
N 0.808437  0.851253  0.704828 0 0 0
N 0.560729  0.148857  0.206052 0 0 0
N 0.686543  0.650310  0.705838 0 0 0
N 0.938810  0.350928  0.208041 0 0 0
Ni 0.247002  0.751486  0.836326 0 0 0
Ni 0.499972  0.247999  0.339178 0 0 0
Ni 0.747002  0.751486  0.836326 0 0 0
Ni 0.999972  0.247999  0.339178 0 0 0
O 0.122778  0.347689  0.382873 0 0 0
O 0.371208  0.650977  0.881292 0 0 0
O 0.377630  0.147507  0.377178 0 0 0
O 0.125098  0.852352  0.876261 0 0 0
O 0.473069  0.356160  0.482994 0 0 0
O 0.221137  0.641415  0.979877 0 0 0
O 0.028840  0.135158  0.481078 0 0 0
O 0.276686  0.862758  0.979399 0 0 0
O 0.622779  0.347689  0.382873 0 0 0
O 0.871208  0.650977  0.881292 0 0 0
O 0.877630  0.147507  0.377178 0 0 0
O 0.625098  0.852352  0.876261 0 0 0
O 0.973069  0.356160  0.482994 0 0 0
O 0.721137  0.641415  0.979877 0 0 0
O 0.528840  0.135158  0.481078 0 0 0
O 0.776686  0.862758  0.979399 0 0 0
O 0.552678  0.008491  0.674977 1 1 1
O 0.976978  0.994050  0.920118 1 1 1
O 0.267916  0.492211  0.426330 1 1 1
O 0.518083  0.509300  0.927646 1 1 1
O 0.727653  0.008448  0.419785 1 1 1
O 0.802901  0.988785  0.173639 1 1 1
O 0.767917  0.492210  0.426331 1 1 1
O 0.698701  0.515802  0.176105 1 1 1
