&CONTROL
   calculation = 'relax',
   prefix = 'NiPyC2_relax_sc211_meta_functionalized_C-3CH3_pbesol_relax_frozen_parent_atoms',
   pseudo_dir = './pseudo/',
   outdir = '/nfs/hpc/share/gantzlen'
   wf_collect = .FALSE.,
   nstep = 200,
/
&SYSTEM
   ibrav = 0,
   nat = 204,
   ntyp = 5.000000,
   tot_charge = 0.000000,
   ecutwfc = 100.000000,
   
   vdw_corr = 'grimme-d2',
   occupations = 'smearing',
   degauss = 0.200000,
   smearing = 'mv',
   nspin = 2 ,
   starting_magnetization(4) = 0.250000,
   tot_magnetization = 8.000000
/
&ELECTRONS
    electron_maxstep = 40.000000,
    scf_must_converge = .FALSE.,
    conv_thr = 5.D-6,
    mixing_mode = 'local-TF',
    diagonalization = 'david',
/
&IONS
   ion_dynamics = 'bfgs',
/
&CELL
   cell_dynamics = 'bfgs'
   cell_dofree = 'xyz'
/
ATOMIC_SPECIES
C    12.010700    C.pbesol-nc.UPF
H    1.007940    H.pbesol-n-nc.UPF
N    14.006700    N.pbesol-nc.UPF
Ni    58.693400    Ni.pbesol-n-nc.UPF
O    15.999400    O.pbesol-nc.UPF
K_POINTS {gamma}
CELL_PARAMETERS {angstrom}
     12.505600   0.000000   0.000000
     0.000000   12.523400   0.000000
     -0.227594   0.000000   10.274279
ATOMIC_POSITIONS {crystal}
C 0.288212  0.970050  0.521984 0 0 0
C 0.038379  0.031106  0.022308 0 0 0
C 0.390634  0.011770  0.546492 0 0 0
C 0.140244  0.987744  0.046146 0 0 0
C 0.451915  0.970202  0.650371 0 0 0
C 0.202520  0.028353  0.149893 0 0 0
C 0.208181  0.529704  0.526384 0 0 0
C 0.458545  0.471409  0.027904 0 0 0
C 0.245137  0.613331  0.606435 0 0 0
C 0.496819  0.388677  0.108617 0 0 0
C 0.249476  0.889206  0.603203 0 0 0
C 0.001069  0.112232  0.104247 0 0 0
C 0.407977  0.889383  0.727552 0 0 0
C 0.159935  0.109547  0.227812 0 0 0
C 0.088862  0.608983  0.727352 0 0 0
C 0.340890  0.391633  0.229394 0 0 0
C 0.046925  0.525079  0.651312 0 0 0
C 0.297658  0.474711  0.152754 0 0 0
C 0.108164  0.484270  0.550116 0 0 0
C 0.357832  0.515656  0.050638 0 0 0
C 0.433310  0.099319  0.466621 0 0 0
C 0.181517  0.899720  0.965672 0 0 0
C 0.067378  0.394474  0.470676 0 0 0
C 0.316043  0.604172  0.969107 0 0 0
C 0.788212  0.970050  0.521984 0 0 0
C 0.538379  0.031106  0.022308 0 0 0
C 0.890634  0.011770  0.546492 0 0 0
C 0.640244  0.987744  0.046146 0 0 0
C 0.951915  0.970202  0.650371 0 0 0
C 0.702520  0.028353  0.149893 0 0 0
C 0.708182  0.529704  0.526384 0 0 0
C 0.958546  0.471409  0.027904 0 0 0
C 0.745137  0.613331  0.606435 0 0 0
C 0.996819  0.388677  0.108617 0 0 0
C 0.749476  0.889206  0.603203 0 0 0
C 0.501069  0.112232  0.104247 0 0 0
C 0.907977  0.889383  0.727552 0 0 0
C 0.659934  0.109547  0.227812 0 0 0
C 0.588862  0.608983  0.727352 0 0 0
C 0.840890  0.391633  0.229394 0 0 0
C 0.546925  0.525079  0.651312 0 0 0
C 0.797658  0.474711  0.152754 0 0 0
C 0.608164  0.484270  0.550116 0 0 0
C 0.857832  0.515656  0.050638 0 0 0
C 0.933310  0.099319  0.466621 0 0 0
C 0.681517  0.899720  0.965672 0 0 0
C 0.567377  0.394474  0.470676 0 0 0
C 0.816043  0.604172  0.969107 0 0 0
C 0.570577  0.007794  0.689631 1 1 1
C 0.620064  0.947866  0.809667 1 1 1
C 0.570639  0.126739  0.731881 1 1 1
C 0.648386  0.982833  0.578111 1 1 1
C 0.320873  0.989227  0.188173 1 1 1
C 0.371635  0.048230  0.308134 1 1 1
C 0.319681  0.870176  0.229921 1 1 1
C 0.398454  0.013549  0.076211 1 1 1
C 0.930674  0.483229  0.688371 1 1 1
C 0.880821  0.543176  0.805489 1 1 1
C 0.936379  0.365175  0.733810 1 1 1
C 0.849882  0.502877  0.574120 1 1 1
C 0.536115  0.508263  0.914240 1 1 1
C 0.643767  0.445459  0.910952 1 1 1
C 0.483063  0.486188  0.778998 1 1 1
C 0.570917  0.626107  0.934654 1 1 1
C 0.709316  0.007758  0.405972 1 1 1
C 0.599915  0.947845  0.401151 1 1 1
C 0.678119  0.126700  0.423723 1 1 1
C 0.758941  0.982844  0.272298 1 1 1
C 0.820873  0.989228  0.188173 1 1 1
C 0.871634  0.048231  0.308135 1 1 1
C 0.819682  0.870177  0.229921 1 1 1
C 0.898454  0.013550  0.076212 1 1 1
C 0.430673  0.483230  0.688370 1 1 1
C 0.380816  0.543183  0.805480 1 1 1
C 0.349884  0.502873  0.574114 1 1 1
C 0.436377  0.365179  0.733817 1 1 1
C 0.036116  0.508264  0.914241 1 1 1
C 0.143768  0.445460  0.910953 1 1 1
C 0.983065  0.486189  0.778999 1 1 1
C 0.070918  0.626108  0.934656 1 1 1
H 0.237124  0.999575  0.443113 0 0 0
H 0.486538  0.002692  0.943499 0 0 0
H 0.032063  0.998805  0.673520 0 0 0
H 0.258700  0.500895  0.449282 0 0 0
H 0.322641  0.650506  0.592635 0 0 0
H 0.074968  0.352851  0.095028 0 0 0
H 0.170154  0.855123  0.588560 0 0 0
H 0.422322  0.147732  0.089886 0 0 0
H 0.453370  0.855173  0.808761 0 0 0
H 0.206239  0.143103  0.308797 0 0 0
H 0.043729  0.642944  0.806608 0 0 0
H 0.296378  0.357526  0.309051 0 0 0
H 0.218952  0.505201  0.175264 0 0 0
H 0.986538  0.002692  0.943499 0 0 0
H 0.758700  0.500895  0.449282 0 0 0
H 0.822641  0.650506  0.592635 0 0 0
H 0.574968  0.352851  0.095028 0 0 0
H 0.670154  0.855123  0.588560 0 0 0
H 0.922322  0.147732  0.089886 0 0 0
H 0.953370  0.855173  0.808761 0 0 0
H 0.706240  0.143103  0.308797 0 0 0
H 0.543729  0.642944  0.806608 0 0 0
H 0.796378  0.357526  0.309051 0 0 0
H 0.718952  0.505201  0.175264 0 0 0
H 0.626702  0.860642  0.791208 1 1 1
H 0.702380  0.976966  0.832759 1 1 1
H 0.572494  0.960976  0.898417 1 1 1
H 0.520633  0.136519  0.819203 1 1 1
H 0.653115  0.153506  0.758014 1 1 1
H 0.538463  0.184381  0.661297 1 1 1
H 0.651022  0.895175  0.561319 1 1 1
H 0.628734  0.017292  0.482757 1 1 1
H 0.730756  0.009797  0.604455 1 1 1
H 0.379249  0.135416  0.289998 1 1 1
H 0.453685  0.018077  0.330538 1 1 1
H 0.324325  0.035455  0.397166 1 1 1
H 0.269970  0.860764  0.317555 1 1 1
H 0.401935  0.842347  0.255374 1 1 1
H 0.286484  0.813117  0.159307 1 1 1
H 0.402080  0.101213  0.059772 1 1 1
H 0.377947  0.979586  0.980836 1 1 1
H 0.480600  0.985523  0.101875 1 1 1
H 0.870180  0.629690  0.784515 1 1 1
H 0.800195  0.511063  0.827181 1 1 1
H 0.930489  0.533683  0.895852 1 1 1
H 0.988315  0.359086  0.822719 1 1 1
H 0.855548  0.335442  0.758475 1 1 1
H 0.969712  0.307677  0.665624 1 1 1
H 0.843252  0.590023  0.554908 1 1 1
H 0.869282  0.467561  0.480210 1 1 1
H 0.769170  0.472954  0.599004 1 1 1
H 0.691504  0.456296  0.002589 1 1 1
H 0.694486  0.474092  0.830482 1 1 1
H 0.630249  0.358743  0.894065 1 1 1
H 0.469189  0.398990  0.767257 1 1 1
H 0.536174  0.512605  0.699855 1 1 1
H 0.404996  0.522967  0.759639 1 1 1
H 0.616529  0.633646  0.028305 1 1 1
H 0.507003  0.685425  0.940370 1 1 1
H 0.623907  0.652333  0.855297 1 1 1
H 0.610740  0.860626  0.385938 1 1 1
H 0.548292  0.976985  0.319033 1 1 1
H 0.554391  0.960925  0.491516 1 1 1
H 0.634673  0.136448  0.516203 1 1 1
H 0.624185  0.153506  0.342702 1 1 1
H 0.743744  0.184331  0.430003 1 1 1
H 0.770217  0.895189  0.262250 1 1 1
H 0.837586  0.017302  0.254185 1 1 1
H 0.704896  0.009848  0.191484 1 1 1
H 0.879248  0.135417  0.289999 1 1 1
H 0.953685  0.018079  0.330539 1 1 1
H 0.824324  0.035455  0.397166 1 1 1
H 0.769971  0.860765  0.317555 1 1 1
H 0.901935  0.842348  0.255375 1 1 1
H 0.786485  0.813118  0.159307 1 1 1
H 0.902080  0.101215  0.059772 1 1 1
H 0.877947  0.979587  0.980836 1 1 1
H 0.980600  0.985525  0.101876 1 1 1
H 0.430481  0.533694  0.895848 1 1 1
H 0.300189  0.511072  0.827170 1 1 1
H 0.370178  0.629696  0.784499 1 1 1
H 0.343255  0.590018  0.554893 1 1 1
H 0.269171  0.472952  0.598997 1 1 1
H 0.369287  0.467551  0.480208 1 1 1
H 0.488310  0.359094  0.822729 1 1 1
H 0.469713  0.307676  0.665637 1 1 1
H 0.355545  0.335447  0.758480 1 1 1
H 0.191505  0.456297  0.002591 1 1 1
H 0.194488  0.474093  0.830484 1 1 1
H 0.130250  0.358744  0.894066 1 1 1
H 0.969191  0.398991  0.767257 1 1 1
H 0.036176  0.512607  0.699856 1 1 1
H 0.904997  0.522968  0.759639 1 1 1
H 0.116530  0.633646  0.028307 1 1 1
H 0.007003  0.685426  0.940372 1 1 1
H 0.123909  0.652334  0.855299 1 1 1
N 0.308437  0.851253  0.704828 0 0 0
N 0.060729  0.148857  0.206052 0 0 0
N 0.186542  0.650310  0.705838 0 0 0
N 0.438810  0.350928  0.208041 0 0 0
N 0.808437  0.851253  0.704828 0 0 0
N 0.560729  0.148857  0.206052 0 0 0
N 0.686543  0.650310  0.705838 0 0 0
N 0.938810  0.350928  0.208041 0 0 0
Ni 0.247002  0.751486  0.836326 0 0 0
Ni 0.499972  0.247999  0.339178 0 0 0
Ni 0.747002  0.751486  0.836326 0 0 0
Ni 0.999972  0.247999  0.339178 0 0 0
O 0.122778  0.347689  0.382873 0 0 0
O 0.371208  0.650977  0.881292 0 0 0
O 0.377630  0.147507  0.377178 0 0 0
O 0.125098  0.852352  0.876261 0 0 0
O 0.473069  0.356160  0.482994 0 0 0
O 0.221137  0.641415  0.979877 0 0 0
O 0.028840  0.135158  0.481078 0 0 0
O 0.276686  0.862758  0.979399 0 0 0
O 0.622779  0.347689  0.382873 0 0 0
O 0.871208  0.650977  0.881292 0 0 0
O 0.877630  0.147507  0.377178 0 0 0
O 0.625098  0.852352  0.876261 0 0 0
O 0.973069  0.356160  0.482994 0 0 0
O 0.721137  0.641415  0.979877 0 0 0
O 0.528840  0.135158  0.481078 0 0 0
O 0.776686  0.862758  0.979399 0 0 0
