log             log.IRMOF-1_clean_meta_functonalized_F append
units           real
atom_style      full
boundary        p p p

pair_style      lj/cut 12.500
bond_style      harmonic
angle_style     hybrid fourier cosine/periodic
dihedral_style  harmonic
improper_style  fourier

pair_modify     tail yes mix arithmetic
special_bonds   lj/coul 0.0 0.0 1.0
dielectric      1.0
box tilt        large
read_data       data.IRMOF-1_clean_meta_functonalized_F

#### Atom Groupings ####
group           fram     id   1:424
#### END Atom Groupings ####

