log             log.NiPyC2_experiment_with_Xe append
units           real
atom_style      full
boundary        p p p

pair_style      lj/cut 14.000
bond_style      harmonic
angle_style     cosine/periodic
dihedral_style  harmonic
improper_style  fourier

special_bonds   lj/coul 0.0 0.0 1.0
pair_modify     tail yes mix arithmetic
dielectric      1.0
box tilt        large
read_data       data.NiPyC2_experiment_with_Xe

#### Atom Groupings ####
group           1        id   55
group           fram     id   1:54 56:2431
#### END Atom Groupings ####

dump            NiPyC2_experiment_with_Xe_xyzmov all xyz 1000 NiPyC2_experiment_with_Xe_mov.xyz
dump_modify     NiPyC2_experiment_with_Xe_xyzmov element Ni O N C H Xe
variable        dt         equal 1.00
variable        tdamp      equal 100*${dt}
fix             1 1 langevin 298.00 298.00 ${tdamp} 8646
fix             2 1 nve
fix             3 fram langevin 298.00 298.00 ${tdamp} 965287
fix             4 fram nve
thermo          0
run             5000
unfix           1
unfix           2
unfix           3
unfix           4
fix             5 1 nvt temp 298.00 298.00 ${tdamp}
fix             6 fram nvt temp 298.00 298.00 ${tdamp}
thermo          1
run             5000
unfix           5
unfix           6
undump          NiPyC2_experiment_with_Xe_xyzmov
