SimulationType               MonteCarlo
NumberOfCycles               1
NumberOfInitializationCycles 1
# Here print every tells us how often to check flatness of the Visits Histogram
PrintEvery                   1
RestartFile                  yes

CutOffVDW                   12

RemoveAtomNumberCodeFromLabel no

Framework 0 
FrameworkName linker2MOF5_raspa
 
UseChargesFromCIFFile yes 
UnitCells 1 1 1  

ExternalTemperature 300
ExternalPressure 0

Component 0     MoleculeName            methane
                MoleculeDefinition      TraPPE
                SwapGhostProbability        1.0
