 &GLOBAL
   PREFERRED_FFT_LIBRARY  FFTW3
   EXTENDED_FFT_LENGTHS  T
   PRINT_LEVEL  LOW
   PROJECT_NAME aimd
   RUN_TYPE  MD
 &END GLOBAL
 &MOTION
   &MD
     ENSEMBLE  NVT
     STEPS  2000
     TIMESTEP     0.5
     TEMPERATURE     298
     &THERMOSTAT
       TYPE  CSVR
       &CSVR
         TIMECON    0.1      ### small time constant (strong coupling) for equilibration; change to 50~100 or bigger for production run
       &END CSVR
     &END THERMOSTAT
   &END MD
   &PRINT
     &TRAJECTORY  SILENT
       FORMAT  XMOL
       &EACH
         MD  10
       &END EACH
     &END TRAJECTORY
     &CELL  SILENT
       &EACH
         MD  10
       &END EACH
     &END CELL
     &RESTART  SILENT
       &EACH
         MD  10
       &END EACH
     &END RESTART
   &END PRINT
 &END MOTION
 &FORCE_EVAL
   METHOD  QS
   &DFT
     BASIS_SET_FILE_NAME BASIS_MOLOPT
     POTENTIAL_FILE_NAME POTENTIAL
     UKS  F
     CHARGE  0
     &SCF
       MAX_SCF  20
       EPS_SCF     1.000E-06
       SCF_GUESS  RESTART
       &OT  T
         MINIMIZER  CG
         PRECONDITIONER  FULL_SINGLE_INVERSE
       &END OT
       &OUTER_SCF  T
         EPS_SCF     1.000E-06
         MAX_SCF  200
       &END OUTER_SCF
     &END SCF
     &QS
       EPS_DEFAULT     9.9999999999999998E-13
     &END QS
     &MGRID
       CUTOFF     4.0000000000000000E+02
       REL_CUTOFF     5.0000000000000000E+01
     &END MGRID
     &XC
       DENSITY_CUTOFF     1.0000000000000000E-10
       GRADIENT_CUTOFF     1.0000000000000000E-10
       TAU_CUTOFF     1.0000000000000000E-10
       &XC_FUNCTIONAL  NO_SHORTCUT
         &PBE  T
         &END PBE
       &END XC_FUNCTIONAL
       &VDW_POTENTIAL
         POTENTIAL_TYPE  PAIR_POTENTIAL
         &PAIR_POTENTIAL
           TYPE  DFTD3
           PARAMETER_FILE_NAME  dftd3.dat
           REFERENCE_FUNCTIONAL PBE
           CALCULATE_C9_TERM  T
           REFERENCE_C9_TERM  T
         &END PAIR_POTENTIAL
       &END VDW_POTENTIAL
     &END XC
     &PRINT
       &MULLIKEN  OFF
       &END MULLIKEN
       &HIRSHFELD  OFF
       &END HIRSHFELD
     &END PRINT
   &END DFT
   &SUBSYS
     &CELL
       A     2.3583078615245181E+01    0.0000000000000000E+00    0.0000000000000000E+00
       B     0.0000000000000000E+00    1.6866968137811284E+01    0.0000000000000000E+00
       C    -3.9695560921280948E+00    0.0000000000000000E+00    2.2688769801391643E+01
       MULTIPLE_UNIT_CELL  1 1 1
       SYMMETRY  MONOCLINIC
     &END CELL
     &COORD
C    2.4664221568604103E-01    8.8259145985270349E-02    2.6231335151377344E-01
C    3.3610347278264716E-03    2.5492649579300125E-01    2.3769022708925647E-01
C    2.5335914418684929E-01    2.4507459746849777E-01    7.3768842047369665E-01
C    4.9663905317662327E-01    7.8406913362733602E-02    7.6230991646326218E-01
C    1.9992619975429141E-01    7.1149095489644168E-02    2.9807728310415110E-01
C    5.0070713752661214E-02    2.3781978560801564E-01    2.0191793413148251E-01
C    3.0007280269248304E-01    2.6218317751815734E-01    7.0192117938602061E-01
C    4.4992911649407114E-01    9.5513728015379884E-02    7.9808186490020439E-01
C    1.5601066578157075E-01    1.2678084703115075E-01    2.9950159180470365E-01
C    9.3989849455601154E-02    2.9344794029795823E-01    2.0050116487344474E-01
C    3.4398976360189115E-01    2.0655296978194634E-01    7.0049917668890971E-01
C    4.0601027902176939E-01    3.9885210874157508E-02    7.9949900873696989E-01
H    1.5736925251106265E-01    1.8238949308086824E-01    2.7593206607577464E-01
H    9.2631683987269883E-02    1.5722033941324865E-02    2.2407205611762557E-01
H    3.4263075545241473E-01    1.5094382962829930E-01    7.2406795359607390E-01
H    4.0736827751130156E-01    3.1761131875877568E-01    7.7592807828781518E-01
C    1.1029578209028712E-01    1.1031218815380166E-01    3.2885038529101263E-01
C    1.3970311632277427E-01    2.7698280344983456E-01    1.7114933443143729E-01
C    3.8970397976671378E-01    2.2302086219900535E-01    6.7114932821639117E-01
C    3.6029704116008121E-01    5.6350267172644887E-02    8.2885093650392794E-01
H    7.5086439737002825E-02    1.5216905876663600E-01    3.2828822733652002E-01
H    1.7491419966180474E-01    3.1883735018242704E-01    1.7171406448508311E-01
H    4.2491359136810747E-01    1.8116430480996271E-01    6.7171187702281498E-01
H    3.2508602274417353E-01    1.4495541509407859E-02    8.2828634047153749E-01
C    1.0986950744757722E-01    3.7591250890074333E-02    3.5801423065880617E-01
C    1.4012950958234283E-01    2.0426201520233253E-01    1.4198536269591408E-01
C    3.9013067162002013E-01    2.9574210701566950E-01    6.4198599405491985E-01
C    3.5987048899917923E-01    1.2907137893701787E-01    8.5801453624847179E-01
C    1.5412046043297964E-01    3.1528625225999107E-01    3.5847851786812729E-01
C    9.5876871906648509E-02    1.4862478173740215E-01    1.4151672141089813E-01
C    3.4587937331709678E-01    1.8047044763447359E-02    6.4152129173569150E-01
C    4.0412294982908281E-01    1.8470875929680650E-01    8.5848295909278483E-01
H    1.5254684589762649E-01    2.5879662019475508E-01    3.8086342123609751E-01
H    9.7450244300984590E-02    9.2135001919679438E-02    1.1913224600546554E-01
H    3.4745307794391533E-01    7.4536746415808874E-02    6.1913652161148591E-01
H    4.0254939672612811E-01    2.4119862630675401E-01    8.8086719675311009E-01
C    1.9871960526548543E-01    3.3198060610993257E-01    3.2774783708115524E-01
C    5.1280413102874609E-02    1.6531543416709521E-01    1.7225182327355504E-01
C    3.0128067061985075E-01    1.3530720363550970E-03    6.7225263332440743E-01
C    4.4871958275795382E-01    1.6801787797923579E-01    8.2774819809227218E-01
H    2.3204787598234464E-01    2.8809230495306098E-01    3.2515191264009963E-01
H    1.7949797916637020E-02    1.2142975332793540E-01    1.7484533669507224E-01
H    2.6795206375574088E-01    4.5240927121331827E-02    6.7484799806285767E-01
H    4.8204990240413248E-01    2.1190381861848825E-01    8.2515421743277795E-01
C    7.3579447391030686E-02    3.7142971268179580E-02    4.6932516090733134E-01
C    1.7641863956473747E-01    2.0381500570903308E-01    3.0673743475002062E-02
C    4.2642049374540825E-01    2.9619026108961799E-01    5.3067480325315808E-01
C    3.2358146937779941E-01    1.2951809801449046E-01    9.6932623201687074E-01
C    5.9490609335127044E-02    1.1117101194593514E-01    4.9020365135204635E-01
C    1.9050564302286674E-01    2.7784348176898493E-01    9.7941995931701831E-03
C    4.4050971608305572E-01    2.2216237919581597E-01    5.0979621005303433E-01
C    3.0949501080603725E-01    5.5489369913135925E-02    9.9020572851635913E-01
H    3.7651309813334373E-02    1.5509362976131866E-01    4.5973955885315365E-01
H    2.1234178217107941E-01    3.2176857467949810E-01    4.0258332378084606E-02
H    4.6234888342871278E-01    1.7823968845272969E-01    5.4026045691321323E-01
H    2.8765910966980979E-01    1.1564177599374304E-02    9.5974155524922455E-01
C    7.3459393382237184E-02    1.2682208274888604E-01    5.5038647589531076E-01
C    1.7653959818664086E-01    2.9349268484538754E-01    9.4961066355264256E-01
C    4.2654084320253455E-01    2.0651152727895314E-01    4.4961324303298594E-01
C    3.2346087325945849E-01    3.9840381800144174E-02    5.0389292113710946E-02
H    6.1928564727974186E-02    1.8311935718080347E-01    5.6815046398029856E-01
H    1.8807099338035305E-01    1.6456205660871179E-02    9.3184639041045991E-01
H    4.3807132344746419E-01    1.5021371019414181E-01    4.3184951599947718E-01
H    3.1192968431505896E-01    3.1687702471637569E-01    6.8153478529141054E-02
C    1.0091135411519839E-01    6.9371722012078418E-02    5.8929178660150650E-01
C    1.4908468137825759E-01    2.3604344119704440E-01    9.1070671275157111E-01
C    3.9908641555676183E-01    2.6396076065233093E-01    4.1070836735524874E-01
C    3.5091570598557220E-01    9.7289674879250276E-02    8.9293267692356806E-02
C    1.1615147677324153E-01    3.2949314330664253E-01    5.6748683712970782E-01
C    1.3384979156700122E-01    1.6282961965352352E-01    9.3251087796964505E-01
C    3.8384949609320329E-01    3.8412033620395529E-03    4.3251331542092453E-01
C    3.6614999611598537E-01    1.7050384450866113E-01    6.7489143550007874E-02
H    1.3749744694418972E-01    2.8521820468780512E-01    5.9812193155515414E-01
H    1.1250428280971238E-01    1.1855503611117718E-01    9.0187518790303645E-01
H    3.6250218344643054E-01    4.8114964570885287E-02    4.0187799747081132E-01
H    3.8749536870439738E-01    2.1477852263545932E-01    9.8124846456002293E-02
C    1.0287528702143296E-01    3.1334415781450220E-01    5.0727394854940455E-01
C    1.4712395432056549E-01    1.4668264146252166E-01    9.9272401351377360E-01
C    3.9712467938768919E-01    1.9989454059736251E-02    4.9272645503303930E-01
C    3.5287585511817571E-01    1.8665073800025689E-01    7.2759697760773007E-03
H    1.1376797217425519E-01    2.5641116045844203E-01    4.9005817935346668E-01
H    1.3622962546195652E-01    8.9750175391431805E-02    9.9392897075093276E-03
H    3.8623175768156304E-01    7.6922633339138527E-02    5.0994192417363948E-01
H    3.6376993804870955E-01    2.4358336749095949E-01    9.9006070252716449E-01
C    1.1363382214760112E-01    8.6544542719741574E-02    6.5413766571457133E-01
C    1.3637442130847205E-01    2.5321075337177651E-01    8.4586008466410600E-01
C    3.8637002827000910E-01    2.4678899248326167E-01    3.4586207758409893E-01
C    3.6362535044387834E-01    8.0122515515804293E-02    1.5413991530802057E-01
O    2.5693446943473780E-01    1.6108282348851316E-01    2.5366394917271678E-01
O    4.9306460381431527E-01    3.2775061400210587E-01    2.4633319971280462E-01
O    2.4306500562082889E-01    1.7225070696926256E-01    7.4633472591373440E-01
O    6.9355102291634441E-03    5.5828667047192766E-03    7.5366688312758667E-01
O    2.7076356207200020E-01    2.9020521900524707E-02    2.4290908786901313E-01
O    4.7923411952039563E-01    1.9568841465007497E-01    2.5708876577547224E-01
O    2.2923499785053297E-01    3.0431259677128708E-01    7.5709011150455419E-01
O    2.0766083871930754E-02    1.3764492913062321E-01    7.4291102153935795E-01
O    3.1666400640845346E-03    6.7217974040865533E-02    3.7135667471680961E-01
O    2.4683212107119071E-01    2.3388658381609279E-01    1.2864329599923180E-01
O    4.9683344580833444E-01    2.6611543579313740E-01    6.2864358788842845E-01
O    2.5316794020679007E-01    9.9446675536166942E-02    8.7135696972895504E-01
O    4.1890951258147645E-02    2.6090796450353443E-01    3.8937341946563520E-01
O    2.0810887594364222E-01    9.4243495957900006E-02    1.1062678403386017E-01
O    4.5810921036724200E-01    7.2425545021347515E-02    6.1062679110346385E-01
O    2.9189103676612971E-01    2.3908982861546377E-01    8.8937314981385795E-01
O    1.1812069135680139E-01    1.5804539001108051E-01    6.7132801627369532E-01
O    1.3187491748976307E-01    3.2471466772817525E-01    8.2867852288481103E-01
O    3.8187681782059379E-01    1.7528800508808781E-01    3.2867257868326255E-01
O    3.6812529235973712E-01    8.6187102681854443E-03    1.7132158625167349E-01
O    1.2156748355858653E-01    2.7694245418438519E-02    6.8973571589534699E-01
O    1.2842723345181054E-01    1.9435961326417675E-01    8.1026387264540012E-01
O    3.7842996779879595E-01    3.0563894032692634E-01    3.1026407442364767E-01
O    3.7157303414711829E-01    1.3897368780989433E-01    1.8973607524492539E-01
S    5.1089434055737244E-02    1.3064689753238106E-02    3.9354674080526525E-01
S    1.9890891555404883E-01    1.7973396261788527E-01    1.0645282830970730E-01
S    4.4891057199359308E-01    3.2026844705325952E-01    6.0645321727142720E-01
S    3.0109114181023988E-01    1.5359939867099701E-01    8.9354716138930657E-01
Ca    3.1847521426102898E-01    2.4958362321375127E-01    2.2065686729621395E-01
Ca    4.3152590906411709E-01    8.2917075523042047E-02    2.7934455581713658E-01
Ca    1.8152504602680625E-01    8.3749466619913823E-02    7.7934300900833031E-01
Ca    6.8474204485542645E-02    2.5041629591045267E-01    7.2065540230890257E-01
C    2.4664300876424350E-01    4.2159246577419945E-01    2.6231426951898540E-01
C    3.3606600670011075E-03    5.8825963444992835E-01    2.3768979673638785E-01
C    2.5335875609493586E-01    5.7840774892815294E-01    7.3768792164227737E-01
C    4.9664299970798270E-01    4.1173919434147693E-01    7.6231482016178953E-01
C    1.9992566732018319E-01    4.0448208554098830E-01    2.9807642277351382E-01
C    5.0071141829510994E-02    5.7115279159399734E-01    2.0191862374068767E-01
C    3.0007322492439337E-01    5.9551701179522754E-01    7.0192187935640427E-01
C    4.4992659703767324E-01    4.2884949930482713E-01    7.9807772827837464E-01
C    1.5601077701001201E-01    4.6011442172328876E-01    2.9950183245910167E-01
C    9.3989591698389274E-02    6.2678167824066144E-01    2.0050073429096246E-01
C    3.4398952812096711E-01    5.3988607356415430E-01    7.0049884578557631E-01
C    4.0601103123672655E-01    3.7321767723563254E-01    7.9950043081430111E-01
H    1.5736911206334642E-01    5.1572271540003001E-01    2.7593190246439514E-01
H    9.2631216478494260E-02    3.4905623051420948E-01    2.2407118324737818E-01
H    3.4263073486333939E-01    4.8427715528057735E-01    7.2406801321223768E-01
H    4.0736855128378735E-01    6.5094433323673762E-01    7.7592823389231258E-01
C    1.1029561551613268E-01    4.4364540607417313E-01    3.2885005572643650E-01
C    1.3970302333551490E-01    6.1031626335087330E-01    1.7114923845056293E-01
C    3.8970413075648674E-01    5.5635436491199930E-01    6.7114955865694004E-01
C    3.6029623535082778E-01    3.8968459874563871E-01    8.2884970573932082E-01
H    7.5086420912398352E-02    4.8550239849306848E-01    3.2828811184204665E-01
H    1.7491406923120009E-01    6.5217087699172960E-01    1.7171389513880717E-01
H    4.2491359290001068E-01    5.1449763357317391E-01    6.7171180139327646E-01
H    3.2508553618394770E-01    3.4782942057976551E-01    8.2828555586313368E-01
C    1.0986948847380036E-01    3.7092480067503403E-01    3.5801433464010612E-01
C    1.4012936278899854E-01    5.3759542635134483E-01    1.4198533383654760E-01
C    3.9013063484205335E-01    6.2907547802522124E-01    6.4198596374436401E-01
C    3.5987084259849517E-01    4.6240434029710825E-01    8.5801547012051171E-01
C    1.5412048654470331E-01    6.4861943907083397E-01    3.5847834703978243E-01
C    9.5876906410827328E-02    4.8195813673820909E-01    1.4151697273984210E-01
C    3.4587924891885219E-01    3.5138017526729121E-01    6.4152091196045269E-01
C    4.0412295644235263E-01    5.1804212174204134E-01    8.5848265009522284E-01
H    1.5254683430217625E-01    5.9213002819415095E-01    3.8086338300795064E-01
H    9.7450334063005586E-02    4.2546842701843579E-01    1.1913252692853027E-01
H    3.4745312984741500E-01    4.0787011931075745E-01    6.1913648304881397E-01
H    4.0255013494922298E-01    5.7453118458172980E-01    8.8086820130112276E-01
C    1.9871970492058313E-01    6.6531409855192813E-01    3.2774794011933855E-01
C    5.1280059028679478E-02    4.9864923860127275E-01    1.7225137232178714E-01
C    3.0128109762789623E-01    3.3468689405493723E-01    6.7225316502582233E-01
C    4.4872114973995214E-01    5.0134949643093007E-01    8.2775041079019784E-01
H    2.3204770961958499E-01    6.2142566132007115E-01    3.2515180049782499E-01
H    1.7949885759337932E-02    4.5476313896065035E-01    1.7484544201714533E-01
H    2.6795196837645591E-01    3.7857434326727946E-01    6.7484779379427950E-01
H    4.8205038220554797E-01    5.4523655463379339E-01    8.2515475611290001E-01
C    7.3579436308087595E-02    3.7047645625317455E-01    4.6932516974816202E-01
C    1.7641829862447453E-01    5.3714878653180154E-01    3.0673866826114757E-02
C    4.2642052297236782E-01    6.2952335558036265E-01    5.3067488949237718E-01
C    3.2358168079443406E-01    4.6285154585052457E-01    9.6932639803078291E-01
C    5.9490527239386630E-02    4.4450447063556725E-01    4.9020380592381724E-01
C    1.9050564197032610E-01    6.1117699435266459E-01    9.7941845675898875E-03
C    4.4050947087748121E-01    5.5549548379503011E-01    5.0979607185749476E-01
C    3.0949318991961444E-01    3.8882365178012995E-01    9.9020585307944831E-01
H    3.7651216055862538E-02    4.8842711028751185E-01    4.5973959648310903E-01
H    2.1234185970058389E-01    6.5510198410209808E-01    4.0258332178625948E-02
H    4.6234869551139929E-01    5.1157300851367049E-01    5.4026045923007959E-01
H    2.8765646527536071E-01    3.4489887673755315E-01    9.5974174829557568E-01
C    7.3458956791691843E-02    4.6015494243552285E-01    5.5038679988678796E-01
C    1.7653979576759762E-01    6.2682581447607555E-01    9.4961053969322340E-01
C    4.2654151829080328E-01    5.3984555331640915E-01    4.4961295718747502E-01
C    3.2345958133242642E-01    3.7317450655283352E-01    5.0389386251620698E-02
H    6.1928551210480819E-02    5.1645273579156314E-01    5.6815044063218700E-01
H    1.8806861254187410E-01    3.4979102211926444E-01    9.3184669521329544E-01
H    4.3807121322880532E-01    4.8354719568876992E-01    4.3184958775443677E-01
H    3.1192996792689753E-01    6.5020992240719400E-01    6.8153443701267316E-02
C    1.0091337571631089E-01    4.0270581616880535E-01    5.8929167479850708E-01
C    1.4908246477755605E-01    5.6937788899243358E-01    9.1070690602901261E-01
C    3.9908355641935900E-01    5.9729285860778480E-01    4.1070858058423837E-01
C    3.5091472364757587E-01    4.3062348354297414E-01    8.9293402589597587E-02
C    1.1615083073130840E-01    6.6282587558808770E-01    5.6748670132145562E-01
C    1.3384929212604482E-01    4.9616321628186522E-01    9.3251108837098984E-01
C    3.8384883225398553E-01    3.3717376523242737E-01    4.3251309945307231E-01
C    3.6615133401672467E-01    5.0383626597611519E-01    6.7489021929526841E-02
H    1.3749759061328526E-01    6.1855169352392003E-01    5.9812193375945799E-01
H    1.1250299933326510E-01    4.5188917837025533E-01    9.0187530988509101E-01
H    3.6250253634369894E-01    3.8144852895786185E-01    4.0187805518011604E-01
H    3.8749716343715085E-01    5.4811059884244562E-01    9.8124730943915425E-02
C    1.0287518116389363E-01    6.4667736313174007E-01    5.0727370991284104E-01
C    1.4712333836826552E-01    4.8001637766960231E-01    9.9272430564409209E-01
C    3.9712464839342082E-01    3.5332251302269457E-01    4.9272601896992702E-01
C    3.5287682295315059E-01    5.1998381236634938E-01    7.2760237445301879E-03
H    1.1376809457639531E-01    5.8974435395690883E-01    4.9005815481312537E-01
H    1.3622841291793866E-01    4.2308412351899816E-01    9.9395291426136387E-03
H    3.8623189966743693E-01    4.1025539333273309E-01    5.0994183743920518E-01
H    3.6377217103042125E-01    5.7691565549216994E-01    9.9006050173904647E-01
C    1.1363033941003188E-01    4.1987775191663790E-01    6.5413790496191149E-01
C    1.3637759482307790E-01    5.8654407602429093E-01    8.4585987907716698E-01
C    3.8637514844103643E-01    5.8012259547367884E-01    3.4586170056620724E-01
C    3.6362670327638913E-01    4.1345573844871220E-01    1.5413988037317861E-01
O    2.5693398846177851E-01    4.9441628596010928E-01    2.5366352877915610E-01
O    4.9306522720787854E-01    6.6108404910275886E-01    2.4633340877345289E-01
O    2.4306511794904645E-01    5.0558391779897849E-01    7.4633508307704732E-01
O    6.9336073499687706E-03    3.3891540387225633E-01    7.5366298163772927E-01
O    2.7076284581496246E-01    3.6235386824148746E-01    2.4290833133588319E-01
O    4.7923460123301403E-01    5.2902140080405868E-01    2.5708910424384163E-01
O    2.2923548657988763E-01    6.3764607560960573E-01    7.5709018973805520E-01
O    2.0761964591426568E-02    4.7097889002862214E-01    7.4290887653959037E-01
O    3.1667031596444503E-03    4.0055133248866542E-01    3.7135631972968386E-01
O    2.4683213253150241E-01    5.6721982093505763E-01    1.2864320220628281E-01
O    4.9683336191034039E-01    5.9944865276495496E-01    6.2864330265996737E-01
O    2.5316778820814878E-01    4.3278028046204015E-01    8.7135616990140363E-01
O    4.1890834724226222E-02    5.9424130616422477E-01    3.8937346530749889E-01
O    2.0810890550208697E-01    4.2757689508548347E-01    1.1062670988959676E-01
O    4.5810910347847505E-01    4.0575863977439558E-01    6.1062651422398595E-01
O    2.9189124993101645E-01    5.7242324706909087E-01    8.8937295241071479E-01
O    1.1812306922809532E-01    4.9137874601459591E-01    6.7132744999135585E-01
O    1.3187274712365052E-01    6.5804803502478604E-01    8.2867888266506218E-01
O    3.8187348721555336E-01    5.0862139869071454E-01    3.2867336373165545E-01
O    3.6812458779914764E-01    3.4195204573502719E-01    1.7132194438889750E-01
O    1.2156960933324686E-01    3.6102761214580398E-01    6.8973576218242860E-01
O    1.2842505863738210E-01    5.2769324617614122E-01    8.1026370809970361E-01
O    3.7842655947724613E-01    6.3897213187236757E-01    3.1026390304983142E-01
O    3.7157218736945358E-01    4.7230678368024903E-01    1.8973623627032746E-01
S    5.1089419574170750E-02    3.4639817810468793E-01    3.9354675665097527E-01
S    1.9890880004866743E-01    5.1306735177080043E-01    1.0645288958168324E-01
S    4.4891056083728786E-01    6.5360189018638160E-01    6.0645324176392723E-01
S    3.0109094428844568E-01    4.8693271903417312E-01    8.9354736331450468E-01
Ca    3.1847536260586423E-01    5.8291712437061061E-01    2.2065682437845968E-01
Ca    4.3152589279126125E-01    4.1625074403948464E-01    2.7934460640537739E-01
Ca    1.8152496330862006E-01    4.1708278721715991E-01    7.7934337380944552E-01
Ca    6.8474317212932456E-02    5.8374953097876048E-01    7.2065530836760039E-01
C    2.4664329794683262E-01    7.5492598698412228E-01    2.6231459285838987E-01
C    3.3562464509565501E-03    9.2159418168347551E-01    2.3768432173372275E-01
C    2.5335812514958539E-01    9.1174115572778991E-01    7.3768713410296893E-01
C    4.9664390772327011E-01    7.4507249853998392E-01    7.6231585785456668E-01
C    1.9992531286006826E-01    7.3781494019993366E-01    2.9807576244407213E-01
C    5.0073793913182500E-02    9.0448352313985181E-01    2.0192296655276407E-01
C    3.0007373075477423E-01    9.2885080223285044E-01    7.0192264692002360E-01
C    4.4992605549548514E-01    7.6218318699004017E-01    7.9807678388260650E-01
C    1.5601112893340457E-01    7.9344806384345878E-01    2.9950229165728776E-01
C    9.3988754039813494E-02    9.6011595339713585E-01    2.0049928259449387E-01
C    3.4398940638287634E-01    8.7321921334463237E-01    7.0049856969162982E-01
C    4.0601143152390956E-01    7.0655043018326824E-01    7.9950095998179704E-01
H    1.5736899623748637E-01    8.4905600193940012E-01    2.7593162372894403E-01
H    9.2631097202411111E-02    6.8238972473539106E-01    2.2407114450002566E-01
H    3.4263094402470218E-01    8.1761058274372578E-01    7.2406823638678042E-01
H    4.0736903504665578E-01    9.8427676197696001E-01    7.7592912891468580E-01
C    1.1029541208166943E-01    7.7697850399574242E-01    3.2884979525362334E-01
C    1.3970375209927835E-01    9.4364870785020261E-01    1.7115040670779363E-01
C    3.8970439573766258E-01    8.8968799332335002E-01    6.7114991358320752E-01
C    3.6029625104383323E-01    7.2301782266234127E-01    8.2884957240035118E-01
H    7.5086181380756983E-02    8.1883567499414434E-01    3.2828795438875696E-01
H    1.7491430221529827E-01    9.8550402849721652E-01    1.7171440885369124E-01
H    4.2491375881134330E-01    8.4783107200525798E-01    6.7171199801560921E-01
H    3.2508578685607575E-01    6.8116235585101581E-01    8.2828579667026447E-01
C    1.0986966378079022E-01    7.0425803476651938E-01    3.5801456820304978E-01
C    1.4012910197416675E-01    8.7092922083419821E-01    1.4198436252127061E-01
C    3.9013071081133277E-01    9.6240886781968149E-01    6.4198584025438044E-01
C    3.5987097364807863E-01    7.9573734720906986E-01    8.5801566225149173E-01
C    1.5412065894275301E-01    9.8195292141142554E-01    3.5847875679124525E-01
C    9.5877159368834730E-02    8.1529137006143371E-01    1.4151752871368567E-01
C    3.4587927618191844E-01    6.8471361013629106E-01    6.4152110614302116E-01
C    4.0412279066136420E-01    8.5137546475791381E-01    8.5848227224276874E-01
H    1.5254680817483907E-01    9.2546312929005448E-01    3.8086335015469081E-01
H    9.7449812577925815E-02    7.5880252598320552E-01    1.1913172758823276E-01
H    3.4745325370820879E-01    7.4120350521350276E-01    6.1913668846420034E-01
H    4.0255001816647096E-01    9.0786439452079493E-01    8.8086806659900863E-01
C    1.9871931900768855E-01    9.9864678169397292E-01    3.2774739562321020E-01
C    5.1278608390321667E-02    8.3198422682781215E-01    1.7224921554976877E-01
C    3.0128093836729125E-01    6.6802005944030995E-01    6.7225296127073875E-01
C    4.4872135971147314E-01    8.3468246874125140E-01    8.2775056529238256E-01
H    2.3204781916532508E-01    9.5475879338276448E-01    3.2515192206340465E-01
H    1.7949572285347354E-02    7.8809694594594781E-01    1.7484511156958549E-01
H    2.6795222136424157E-01    7.1190782242108874E-01    6.7484806145754894E-01
H    4.8205026678800211E-01    8.7856998531617869E-01    8.2515454409206335E-01
C    7.3579551319520792E-02    7.0380999286139245E-01    4.6932513155618755E-01
C    1.7641819878626169E-01    8.7048206454574939E-01    3.0673570403488719E-02
C    4.2642068153075430E-01    9.6285669469941293E-01    5.3067474518005542E-01
C    3.2358195818806290E-01    7.9618435093980422E-01    9.6932640510658741E-01
C    5.9490515015509352E-02    7.7783784235733733E-01    4.9020391685440612E-01
C    1.9050750490335558E-01    9.4450956892179960E-01    9.7940622806752253E-03
C    4.4050950336192463E-01    8.8882872745644026E-01    5.0979596850846298E-01
C    3.0949319227776217E-01    7.2215657482051976E-01    9.9020588910455765E-01
H    3.7651237188212124E-02    8.2176037665451218E-01    4.5973956641480335E-01
H    2.1234439138542224E-01    9.8843423064658265E-01    4.0258163750808283E-02
H    4.6234873809757532E-01    8.4490635995389818E-01    5.4026047906736996E-01
H    2.8765648116374454E-01    6.7823185897941229E-01    9.5974170143635396E-01
C    7.3458385143514784E-02    7.9348770766315779E-01    5.5038706053638431E-01
C    1.7654085368538230E-01    9.6015872734987451E-01    9.4961048117134506E-01
C    4.2654187138200905E-01    8.7317929378115089E-01    4.4961277798296106E-01
C    3.2345960813992475E-01    7.0650763405378947E-01    5.0389476211453350E-02
H    6.1928701426603720E-02    8.4978621528281006E-01    5.6815037235007104E-01
H    1.8806852094869167E-01    6.8312446339258981E-01    9.3184676247396547E-01
H    4.3807117009137864E-01    8.1688048919591971E-01    4.3184971720587007E-01
H    3.1193234582220297E-01    9.8354180693736915E-01    6.8153156687553909E-02
C    1.0091631732327867E-01    7.3604036304425646E-01    5.8929142739939999E-01
C    1.4908395879497560E-01    9.0271048376888241E-01    9.1070671299976902E-01
C    3.9908169435955076E-01    9.3062546136136437E-01    4.1070872312265433E-01
C    3.5091651561343862E-01    7.6395582770787795E-01    8.9293225883487148E-02
C    1.1615188814450550E-01    9.9616010533748522E-01    5.6748692862551464E-01
C    1.3384821261587015E-01    8.2949731436598539E-01    9.3251117977524745E-01
C    3.8384916983802359E-01    6.7050747071370864E-01    4.3251325657226330E-01
C    3.6615161098444715E-01    8.3716939704003268E-01    6.7488810538140626E-02
H    1.3749734431152061E-01    9.5188460476620673E-01    5.9812197436594305E-01
H    1.1250160840010232E-01    7.8522360505385902E-01    9.0187543486257371E-01
H    3.6250244148012029E-01    7.1478178052355590E-01    4.0187807154791039E-01
H    3.8749812128345329E-01    8.8144315729568190E-01    9.8124607580915485E-02
C    1.0287522494360804E-01    9.8001084143324813E-01    5.0727408385204342E-01
C    1.4712249361429339E-01    8.1335001878326840E-01    9.9272420535832029E-01
C    3.9712487328411050E-01    6.8665599296015212E-01    4.9272626059625652E-01
C    3.5287736745483422E-01    8.5331666638864423E-01    7.2757745537641192E-03
H    1.1376783163161860E-01    9.2307785698674805E-01    4.9005823615946825E-01
H    1.3622650314058998E-01    7.5641851949664318E-01    9.9397420909281258E-03
H    3.8623200957536918E-01    7.4358902215584499E-01    5.0994187297608629E-01
H    3.6377318891283017E-01    9.1024826859848307E-01    9.9006026249648682E-01
C    1.1362488749527580E-01    7.5321075648442515E-01    6.5413828678010599E-01
C    1.3637604888674343E-01    9.1987759634619826E-01    8.4585989021538643E-01
C    3.8637866705060808E-01    9.1345612262305875E-01    3.4586144653735390E-01
C    3.6362387916286920E-01    7.4678895473091389E-01    1.5414007690573764E-01
O    2.5693392007366461E-01    8.2774975463912315E-01    2.5366318840078855E-01
O    4.9306723433421662E-01    9.9441818220966205E-01    2.4633725052823124E-01
O    2.4306559869921368E-01    8.3891719452942126E-01    7.4633548518058346E-01
O    6.9327998061311513E-03    6.7224849875986237E-01    7.5366250849160232E-01
O    2.7076254556316837E-01    6.9568699769007669E-01    2.4290834971458405E-01
O    4.7923873065277861E-01    8.6235398911183780E-01    2.5709131969900778E-01
O    2.2923591259553511E-01    9.7097931496900014E-01    7.5709091195523703E-01
O    2.0761171890029684E-02    8.0431257559043456E-01    7.4290836118105763E-01
O    3.1666943162017638E-03    7.3388470205792511E-01    3.7135656608747508E-01
O    2.4683230630084813E-01    9.0055301446390201E-01    1.2864417424800070E-01
O    4.9683323903716964E-01    9.3278210351387258E-01    6.2864366333935395E-01
O    2.5316765705546274E-01    7.6611370761848097E-01    8.7135606071225746E-01
O    4.1890875332863356E-02    9.2757452707975230E-01    3.8937358070532901E-01
O    2.0810860901923370E-01    7.6091044508259054E-01    1.1062706726185537E-01
O    4.5810921015084127E-01    7.3909207753504425E-01    6.1062644131566435E-01
O    2.9189125244087266E-01    9.0575623454873389E-01    8.8937291027108556E-01