log             log.SBMOF1-CMD_clean append
units           real
atom_style      full
boundary        p p p

pair_style      lj/cut/coul/long 12.500
bond_style      harmonic
angle_style     hybrid fourier cosine/periodic harmonic
dihedral_style  harmonic
improper_style  fourier
kspace_style    ewald 0.000001

dielectric      1.0
pair_modify     tail yes mix arithmetic
special_bonds   lj/coul 0.0 0.0 1.0
box tilt        large
read_data       data.SBMOF1-CMD_clean

#### Atom Groupings ####
group           fram     id   1:4320
group           dummy    type 8:10
#### END Atom Groupings ####

variable        dt         equal 1.00
variable        tdamp      equal 100*${dt}
fix             1 fram langevin 298.00 298.00 ${tdamp} 2866448
fix             2 fram nve
fix 		l3 dummy langevin 298.0 298.0 10 787
fix 		3 dummy nve
thermo          10
run             30000
unfix           1
unfix           2
fix             4 fram nvt temp 298.00 298.00 ${tdamp}
dump            SBMOF1-CMD_clean_dcdmov fram dcd 1000 SBMOF1-CMD_clean_mov.dcd
thermo          15
run             30000
unfix           3
undump          SBMOF1-CMD_clean_dcdmov

# Dump last snapshot for restart
variable curr_lx equal lx
variable curr_ly equal ly
variable curr_lz equal lz
change_box all x final 0 ${curr_lx} y final 0 ${curr_ly} z final 0 ${curr_lz}

reset_timestep 0
dump            SBMOF1-CMD_clean_restart all atom 1 SBMOF1-CMD_clean_restart.lammpstrj
dump_modify     SBMOF1-CMD_clean_restart scale no sort id
run 0
undump          SBMOF1-CMD_clean_restart
