&CONTROL
   calculation = 'relax',
   prefix = 'NiPyC2_relax_sc211_meta_functionalized_CH-CH2_lammps_vdw-df2_relax',
   pseudo_dir = './pseudo/',
   outdir = '/nfs/hpc/share/gantzlen'
   wf_collect = .FALSE.,
   nstep = 200,
/
&SYSTEM
   ibrav = 0,
   nat = 140,
   ntyp = 5.000000,
   tot_charge = 0.000000,
   ecutwfc = 100.000000,
   input_dft = 'vdw-df2',
   vdw_corr = 'grimme-d2',
   occupations = 'smearing',
   degauss = 0.200000,
   smearing = 'mv',
   nspin = 2 ,
   starting_magnetization(4) = 0.250000,
   tot_magnetization = 8.000000
/
&ELECTRONS
    electron_maxstep = 90.000000,
    scf_must_converge = .TRUE.,
    conv_thr = 1.D-6,
    mixing_mode = 'local-TF',
    diagonalization = 'david',
/
&IONS
   ion_dynamics = 'bfgs',
/
&CELL
   cell_dynamics = 'bfgs'
   cell_dofree = 'xyz'
/
ATOMIC_SPECIES
C    12.010700    C.pbesol-nc.UPF
H    1.007940    H.pbesol-n-nc.UPF
N    14.006700    N.pbesol-nc.UPF
Ni    58.693400    Ni.pbesol-n-nc.UPF
O    15.999400    O.pbesol-nc.UPF
K_POINTS {gamma}
CELL_PARAMETERS {angstrom}
     12.505600   0.000000   0.000000
     0.000000   12.523400   0.000000
     -0.227594   0.000000   10.274279
ATOMIC_POSITIONS {crystal}
C 0.280675  0.963852  0.513735
C 0.035194  0.045764  0.001539
C 0.376381  0.019944  0.548197
C 0.120323  0.975318  0.041848
C 0.424677  0.991328  0.666326
C 0.171109  0.000840  0.161756
C 0.165398  0.552701  0.493467
C 0.448666  0.464529  0.031678
C 0.206379  0.637158  0.577919
C 0.484120  0.378506  0.117059
C 0.235468  0.885271  0.600674
C 0.993892  0.124223  0.092343
C 0.393113  0.892385  0.728267
C 0.138695  0.091671  0.236376
C 0.082633  0.589661  0.735375
C 0.332096  0.399472  0.244822
C 0.052611  0.495124  0.665836
C 0.287541  0.477053  0.154948
C 0.090698  0.476569  0.539871
C 0.345939  0.514732  0.047880
C 0.423054  0.116260  0.468264
C 0.165791  0.881087  0.954417
C 0.047974  0.379582  0.456041
C 0.295650  0.604752  0.952375
C 0.772651  0.966822  0.524634
C 0.529102  0.989939  0.095297
C 0.881324  0.000875  0.526338
C 0.636269  0.990642  0.052174
C 0.951085  0.940064  0.606278
C 0.697203  0.079093  0.097840
C 0.718746  0.500515  0.571877
C 0.957275  0.475318  0.037792
C 0.759190  0.588145  0.650549
C 0.991041  0.384669  0.114492
C 0.734747  0.896218  0.624880
C 0.498878  0.054524  0.201774
C 0.910892  0.859184  0.691788
C 0.648358  0.163215  0.174220
C 0.583396  0.640593  0.699367
C 0.835614  0.398394  0.238839
C 0.540184  0.551731  0.625175
C 0.808241  0.498274  0.177247
C 0.607409  0.481103  0.557635
C 0.860642  0.529906  0.063053
C 0.924442  0.100648  0.447271
C 0.685937  0.898686  0.961680
C 0.558959  0.385683  0.472673
C 0.815920  0.624627  0.974930
C 0.471526  0.080390  0.744212
C 0.575546  0.087531  0.771842
C 0.011751  0.061592  0.861741
C 0.915508  0.096352  0.820204
C 0.994923  0.410745  0.734216
C 0.049297  0.333473  0.795595
C 0.528757  0.511635  0.947384
C 0.603479  0.449412  0.893533
C 0.710978  0.969385  0.402946
C 0.688912  0.877773  0.340885
C 0.444182  0.961384  0.007549
C 0.367371  0.033869  0.977090
C 0.424677  0.536798  0.613757
C 0.374982  0.465406  0.688731
C 0.756630  0.581150  0.256267
C 0.650828  0.584863  0.267321
H 0.243416  0.976069  0.420515
H 0.034798  0.958861  0.608481
H 0.239853  0.954892  0.194346
H 0.194036  0.546400  0.395589
H 0.011841  0.507670  0.970300
H 0.268564  0.688528  0.543048
H 0.068752  0.349901  0.098066
H 0.161535  0.846591  0.572640
H 0.423948  0.035800  0.245237
H 0.451308  0.848396  0.782899
H 0.186265  0.115987  0.319347
H 0.039292  0.612528  0.818801
H 0.289166  0.380808  0.331579
H 0.208544  0.508758  0.171611
H 0.781037  0.081908  0.080059
H 0.774641  0.448730  0.524383
H 0.844269  0.602582  0.654608
H 0.562457  0.345155  0.104806
H 0.651462  0.872431  0.622829
H 0.928250  0.174831  0.062039
H 0.964407  0.800557  0.731059
H 0.695558  0.232075  0.200163
H 0.529241  0.693917  0.746229
H 0.791031  0.373538  0.321537
H 0.421518  0.149451  0.763153
H 0.628218  0.023274  0.751130
H 0.607143  0.158096  0.820349
H 0.078157  0.063999  0.795459
H 0.846102  0.088635  0.880147
H 0.906963  0.135745  0.726802
H 0.909382  0.418014  0.747250
H 0.135351  0.326478  0.785908
H 0.008946  0.282528  0.863396
H 0.537455  0.597411  0.946524
H 0.591962  0.363702  0.885441
H 0.676622  0.483174  0.858886
H 0.667931  0.040733  0.378130
H 0.730405  0.804973  0.368645
H 0.622198  0.872447  0.273112
H 0.438938  0.879545  0.978638
H 0.372041  0.115056  0.014197
H 0.307959  0.018164  0.902203
H 0.387369  0.560114  0.522476
H 0.419318  0.417659  0.758670
H 0.292655  0.443984  0.668065
H 0.806267  0.639280  0.307377
H 0.600837  0.526732  0.219082
H 0.614528  0.644815  0.328325
N 0.292184  0.848891  0.708469
N 0.046186  0.146542  0.208030
N 0.169624  0.649363  0.702658
N 0.429577  0.351076  0.225489
N 0.803601  0.848731  0.712894
N 0.546608  0.151513  0.223971
N 0.691860  0.652699  0.721327
N 0.928580  0.344359  0.211581
Ni 0.230877  0.745788  0.841041
Ni 0.489958  0.251277  0.359607
Ni 0.749803  0.756818  0.854842
Ni 0.986788  0.242247  0.343496
O 0.103796  0.325849  0.364414
O 0.349028  0.661144  0.860043
O 0.369573  0.172703  0.374637
O 0.112829  0.829647  0.856446
O 0.458282  0.345578  0.484107
O 0.195783  0.647807  0.963921
O 0.023221  0.144746  0.466089
O 0.264427  0.836722  0.969951
O 0.610233  0.331498  0.377801
O 0.868761  0.675184  0.877753
O 0.869080  0.157325  0.353974
O 0.631236  0.840131  0.869106
O 0.949933  0.334098  0.469197
O 0.716563  0.667050  0.984449
O 0.524907  0.155029  0.483129
O 0.786604  0.857834  0.975689
