&CONTROL
   calculation = 'relax',
   prefix = 'NiPyC2_relax_sc211_ortho_functionalized_CH2-CH2-CH3_pbesol_relax_frozen_parent_atoms',
   pseudo_dir = './pseudo/',
   outdir = '/nfs/hpc/share/gantzlen'
   wf_collect = .FALSE.,
   nstep = 200,
/
&SYSTEM
   ibrav = 0,
   nat = 180,
   ntyp = 5.000000,
   tot_charge = 0.000000,
   ecutwfc = 100.000000,
   
   vdw_corr = 'grimme-d2',
   occupations = 'smearing',
   degauss = 0.200000,
   smearing = 'mv',
   nspin = 2 ,
   starting_magnetization(4) = 0.250000,
   tot_magnetization = 8.000000
/
&ELECTRONS
    electron_maxstep = 40.000000,
    scf_must_converge = .FALSE.,
    conv_thr = 5.D-6,
    mixing_mode = 'local-TF',
    diagonalization = 'david',
/
&IONS
   ion_dynamics = 'bfgs',
/
&CELL
   cell_dynamics = 'bfgs'
   cell_dofree = 'xyz'
/
ATOMIC_SPECIES
C    12.010700    C.pbesol-nc.UPF
H    1.007940    H.pbesol-n-nc.UPF
N    14.006700    N.pbesol-nc.UPF
Ni    58.693400    Ni.pbesol-n-nc.UPF
O    15.999400    O.pbesol-nc.UPF
K_POINTS {gamma}
CELL_PARAMETERS {angstrom}
     12.505600   0.000000   0.000000
     0.000000   12.523400   0.000000
     -0.227594   0.000000   10.274279
ATOMIC_POSITIONS {crystal}
C 0.288212  0.970050  0.521984 0 0 0
C 0.038379  0.031106  0.022308 0 0 0
C 0.390634  0.011770  0.546492 0 0 0
C 0.140244  0.987744  0.046146 0 0 0
C 0.451915  0.970202  0.650371 0 0 0
C 0.202520  0.028353  0.149893 0 0 0
C 0.208181  0.529704  0.526384 0 0 0
C 0.458545  0.471409  0.027904 0 0 0
C 0.245137  0.613331  0.606435 0 0 0
C 0.496819  0.388677  0.108617 0 0 0
C 0.249476  0.889206  0.603203 0 0 0
C 0.001069  0.112232  0.104247 0 0 0
C 0.407977  0.889383  0.727552 0 0 0
C 0.159935  0.109547  0.227812 0 0 0
C 0.088862  0.608983  0.727352 0 0 0
C 0.340890  0.391633  0.229394 0 0 0
C 0.046925  0.525079  0.651312 0 0 0
C 0.297658  0.474711  0.152754 0 0 0
C 0.108164  0.484270  0.550116 0 0 0
C 0.357832  0.515656  0.050638 0 0 0
C 0.433310  0.099319  0.466621 0 0 0
C 0.181517  0.899720  0.965672 0 0 0
C 0.067378  0.394474  0.470676 0 0 0
C 0.316043  0.604172  0.969107 0 0 0
C 0.788212  0.970050  0.521984 0 0 0
C 0.538379  0.031106  0.022308 0 0 0
C 0.890634  0.011770  0.546492 0 0 0
C 0.640244  0.987744  0.046146 0 0 0
C 0.951915  0.970202  0.650371 0 0 0
C 0.702520  0.028353  0.149893 0 0 0
C 0.708182  0.529704  0.526384 0 0 0
C 0.958546  0.471409  0.027904 0 0 0
C 0.745137  0.613331  0.606435 0 0 0
C 0.996819  0.388677  0.108617 0 0 0
C 0.749476  0.889206  0.603203 0 0 0
C 0.501069  0.112232  0.104247 0 0 0
C 0.907977  0.889383  0.727552 0 0 0
C 0.659934  0.109547  0.227812 0 0 0
C 0.588862  0.608983  0.727352 0 0 0
C 0.840890  0.391633  0.229394 0 0 0
C 0.546925  0.525079  0.651312 0 0 0
C 0.797658  0.474711  0.152754 0 0 0
C 0.608164  0.484270  0.550116 0 0 0
C 0.857832  0.515656  0.050638 0 0 0
C 0.933310  0.099319  0.466621 0 0 0
C 0.681517  0.899720  0.965672 0 0 0
C 0.567377  0.394474  0.470676 0 0 0
C 0.816043  0.604172  0.969107 0 0 0
C 0.135147  0.842655  0.574231 1 1 1
C 0.097715  0.754411  0.666881 1 1 1
C 0.985579  0.715598  0.628890 1 1 1
C 0.887439  0.160695  0.075809 1 1 1
C 0.851533  0.249113  0.169138 1 1 1
C 0.739982  0.289843  0.131639 1 1 1
C 0.356756  0.664262  0.579077 1 1 1
C 0.392244  0.755483  0.670523 1 1 1
C 0.501878  0.798433  0.634211 1 1 1
C 0.609456  0.339704  0.081768 1 1 1
C 0.646449  0.249440  0.173787 1 1 1
C 0.756921  0.208375  0.137986 1 1 1
C 0.977604  0.842901  0.843153 1 1 1
C 0.924995  0.754678  0.923924 1 1 1
C 0.000175  0.715970  0.033097 1 1 1
C 0.387439  0.160695  0.075809 1 1 1
C 0.351533  0.249113  0.169138 1 1 1
C 0.239982  0.289843  0.131639 1 1 1
C 0.519695  0.655029  0.839651 1 1 1
C 0.570344  0.746800  0.919156 1 1 1
C 0.495695  0.784763  0.025233 1 1 1
C 0.109455  0.339702  0.081767 1 1 1
C 0.146445  0.249434  0.173781 1 1 1
C 0.256915  0.208365  0.137978 1 1 1
H 0.237124  0.999575  0.443113 0 0 0
H 0.486538  0.002692  0.943499 0 0 0
H 0.032063  0.998805  0.673520 0 0 0
H 0.282340  0.998665  0.172602 0 0 0
H 0.258700  0.500895  0.449282 0 0 0
H 0.008641  0.500397  0.950548 0 0 0
H 0.453370  0.855173  0.808761 0 0 0
H 0.206239  0.143103  0.308797 0 0 0
H 0.043729  0.642944  0.806608 0 0 0
H 0.296378  0.357526  0.309051 0 0 0
H 0.468672  0.493231  0.673502 0 0 0
H 0.218952  0.505201  0.175264 0 0 0
H 0.737124  0.999575  0.443113 0 0 0
H 0.986538  0.002692  0.943499 0 0 0
H 0.532062  0.998805  0.673520 0 0 0
H 0.782340  0.998665  0.172602 0 0 0
H 0.758700  0.500895  0.449282 0 0 0
H 0.508641  0.500397  0.950548 0 0 0
H 0.822641  0.650506  0.592635 0 0 0
H 0.670154  0.855123  0.588560 0 0 0
H 0.706240  0.143103  0.308797 0 0 0
H 0.796378  0.357526  0.309051 0 0 0
H 0.968672  0.493231  0.673502 0 0 0
H 0.718952  0.505201  0.175264 0 0 0
H 0.076441  0.909097  0.579478 1 1 1
H 0.133837  0.808569  0.474320 1 1 1
H 0.153275  0.685233  0.662966 1 1 1
H 0.095917  0.785698  0.768057 1 1 1
H 0.984568  0.682267  0.528693 1 1 1
H 0.960663  0.652081  0.697248 1 1 1
H 0.927380  0.782436  0.633472 1 1 1
H 0.886539  0.195229  0.976131 1 1 1
H 0.827697  0.095159  0.080722 1 1 1
H 0.849370  0.217421  0.270107 1 1 1
H 0.908176  0.317426  0.165582 1 1 1
H 0.680737  0.223907  0.135885 1 1 1
H 0.716166  0.353448  0.200481 1 1 1
H 0.739369  0.323617  0.031668 1 1 1
H 0.418374  0.600480  0.587246 1 1 1
H 0.354596  0.696775  0.478390 1 1 1
H 0.333679  0.822153  0.663695 1 1 1
H 0.397415  0.725918  0.772482 1 1 1
H 0.499446  0.830175  0.533249 1 1 1
H 0.525430  0.864033  0.701656 1 1 1
H 0.562994  0.734223  0.641712 1 1 1
H 0.669883  0.404622  0.089752 1 1 1
H 0.608072  0.306832  0.981255 1 1 1
H 0.589125  0.181694  0.167167 1 1 1
H 0.650896  0.279424  0.275595 1 1 1
H 0.755252  0.176268  0.037193 1 1 1
H 0.781553  0.143433  0.205838 1 1 1
H 0.816839  0.273710  0.145299 1 1 1
H 0.998362  0.909395  0.910791 1 1 1
H 0.051917  0.808830  0.802665 1 1 1
H 0.904577  0.685450  0.860358 1 1 1
H 0.851055  0.785953  0.968413 1 1 1
H 0.074574  0.682654  0.992155 1 1 1
H 0.960223  0.652466  0.089675 1 1 1
H 0.021211  0.782860  0.099890 1 1 1
H 0.386539  0.195229  0.976131 1 1 1
H 0.327697  0.095159  0.080722 1 1 1
H 0.349370  0.217421  0.270107 1 1 1
H 0.408176  0.317426  0.165582 1 1 1
H 0.180737  0.223907  0.135885 1 1 1
H 0.216166  0.353448  0.200481 1 1 1
H 0.239369  0.323617  0.031668 1 1 1
H 0.443367  0.685400  0.796235 1 1 1
H 0.502742  0.589157  0.908722 1 1 1
H 0.646263  0.719290  0.966483 1 1 1
H 0.586925  0.815470  0.854065 1 1 1
H 0.478465  0.718469  0.093467 1 1 1
H 0.534206  0.850871  0.080953 1 1 1
H 0.419303  0.814364  0.981381 1 1 1
H 0.108070  0.306831  0.981252 1 1 1
H 0.169883  0.404618  0.089752 1 1 1
H 0.150894  0.279414  0.275591 1 1 1
H 0.089118  0.181690  0.167158 1 1 1
H 0.316837  0.273697  0.145295 1 1 1
H 0.281544  0.143420  0.205826 1 1 1
H 0.255244  0.176263  0.037183 1 1 1
N 0.308437  0.851253  0.704828 0 0 0
N 0.060729  0.148857  0.206052 0 0 0
N 0.186542  0.650310  0.705838 0 0 0
N 0.438810  0.350928  0.208041 0 0 0
N 0.808437  0.851253  0.704828 0 0 0
N 0.560729  0.148857  0.206052 0 0 0
N 0.686543  0.650310  0.705838 0 0 0
N 0.938810  0.350928  0.208041 0 0 0
Ni 0.247002  0.751486  0.836326 0 0 0
Ni 0.499972  0.247999  0.339178 0 0 0
Ni 0.747002  0.751486  0.836326 0 0 0
Ni 0.999972  0.247999  0.339178 0 0 0
O 0.122778  0.347689  0.382873 0 0 0
O 0.371208  0.650977  0.881292 0 0 0
O 0.377630  0.147507  0.377178 0 0 0
O 0.125098  0.852352  0.876261 0 0 0
O 0.473069  0.356160  0.482994 0 0 0
O 0.221137  0.641415  0.979877 0 0 0
O 0.028840  0.135158  0.481078 0 0 0
O 0.276686  0.862758  0.979399 0 0 0
O 0.622779  0.347689  0.382873 0 0 0
O 0.871208  0.650977  0.881292 0 0 0
O 0.877630  0.147507  0.377178 0 0 0
O 0.625098  0.852352  0.876261 0 0 0
O 0.973069  0.356160  0.482994 0 0 0
O 0.721137  0.641415  0.979877 0 0 0
O 0.528840  0.135158  0.481078 0 0 0
O 0.776686  0.862758  0.979399 0 0 0
