&CONTROL
   calculation = 'relax',
   prefix = 'NiPyC2_relax_sc211_ortho_functionalized_C-3CH3_pbesol_relax_frozen_parent_atoms',
   pseudo_dir = './pseudo/',
   outdir = '/nfs/hpc/share/gantzlen'
   wf_collect = .FALSE.,
   nstep = 200,
/
&SYSTEM
   ibrav = 0,
   nat = 204,
   ntyp = 5.000000,
   tot_charge = 0.000000,
   ecutwfc = 100.000000,
   
   vdw_corr = 'grimme-d2',
   occupations = 'smearing',
   degauss = 0.200000,
   smearing = 'mv',
   nspin = 2 ,
   starting_magnetization(4) = 0.250000,
   tot_magnetization = 8.000000
/
&ELECTRONS
    electron_maxstep = 40.000000,
    scf_must_converge = .FALSE.,
    conv_thr = 5.D-6,
    mixing_mode = 'local-TF',
    diagonalization = 'david',
/
&IONS
   ion_dynamics = 'bfgs',
/
&CELL
   cell_dynamics = 'bfgs'
   cell_dofree = 'xyz'
/
ATOMIC_SPECIES
C    12.010700    C.pbesol-nc.UPF
H    1.007940    H.pbesol-n-nc.UPF
N    14.006700    N.pbesol-nc.UPF
Ni    58.693400    Ni.pbesol-n-nc.UPF
O    15.999400    O.pbesol-nc.UPF
K_POINTS {gamma}
CELL_PARAMETERS {angstrom}
     12.505600   0.000000   0.000000
     0.000000   12.523400   0.000000
     -0.227594   0.000000   10.274279
ATOMIC_POSITIONS {crystal}
C 0.288212  0.970050  0.521984 0 0 0
C 0.038379  0.031106  0.022308 0 0 0
C 0.390634  0.011770  0.546492 0 0 0
C 0.140244  0.987744  0.046146 0 0 0
C 0.451915  0.970202  0.650371 0 0 0
C 0.202520  0.028353  0.149893 0 0 0
C 0.208181  0.529704  0.526384 0 0 0
C 0.458545  0.471409  0.027904 0 0 0
C 0.245137  0.613331  0.606435 0 0 0
C 0.496819  0.388677  0.108617 0 0 0
C 0.249476  0.889206  0.603203 0 0 0
C 0.001069  0.112232  0.104247 0 0 0
C 0.407977  0.889383  0.727552 0 0 0
C 0.159935  0.109547  0.227812 0 0 0
C 0.088862  0.608983  0.727352 0 0 0
C 0.340890  0.391633  0.229394 0 0 0
C 0.046925  0.525079  0.651312 0 0 0
C 0.297658  0.474711  0.152754 0 0 0
C 0.108164  0.484270  0.550116 0 0 0
C 0.357832  0.515656  0.050638 0 0 0
C 0.433310  0.099319  0.466621 0 0 0
C 0.181517  0.899720  0.965672 0 0 0
C 0.067378  0.394474  0.470676 0 0 0
C 0.316043  0.604172  0.969107 0 0 0
C 0.788212  0.970050  0.521984 0 0 0
C 0.538379  0.031106  0.022308 0 0 0
C 0.890634  0.011770  0.546492 0 0 0
C 0.640244  0.987744  0.046146 0 0 0
C 0.951915  0.970202  0.650371 0 0 0
C 0.702520  0.028353  0.149893 0 0 0
C 0.708182  0.529704  0.526384 0 0 0
C 0.958546  0.471409  0.027904 0 0 0
C 0.745137  0.613331  0.606435 0 0 0
C 0.996819  0.388677  0.108617 0 0 0
C 0.749476  0.889206  0.603203 0 0 0
C 0.501069  0.112232  0.104247 0 0 0
C 0.907977  0.889383  0.727552 0 0 0
C 0.659934  0.109547  0.227812 0 0 0
C 0.588862  0.608983  0.727352 0 0 0
C 0.840890  0.391633  0.229394 0 0 0
C 0.546925  0.525079  0.651312 0 0 0
C 0.797658  0.474711  0.152754 0 0 0
C 0.608164  0.484270  0.550116 0 0 0
C 0.857832  0.515656  0.050638 0 0 0
C 0.933310  0.099319  0.466621 0 0 0
C 0.681517  0.899720  0.965672 0 0 0
C 0.567377  0.394474  0.470676 0 0 0
C 0.816043  0.604172  0.969107 0 0 0
C 0.132000  0.835854  0.581155 1 1 1
C 0.106417  0.747816  0.683273 1 1 1
C 0.042767  0.920315  0.599153 1 1 1
C 0.124877  0.776499  0.448721 1 1 1
C 0.884409  0.167513  0.082787 1 1 1
C 0.860361  0.255502  0.185556 1 1 1
C 0.878053  0.227541  0.950767 1 1 1
C 0.793876  0.084385  0.100397 1 1 1
C 0.359748  0.671300  0.585912 1 1 1
C 0.383591  0.761967  0.686550 1 1 1
C 0.361661  0.728778  0.452235 1 1 1
C 0.452903  0.591027  0.607970 1 1 1
C 0.276142  0.338749  0.349002 1 1 1
C 0.339671  0.247961  0.420245 1 1 1
C 0.172612  0.283006  0.298081 1 1 1
C 0.256784  0.422570  0.457137 1 1 1
C 0.973817  0.836100  0.849580 1 1 1
C 0.909240  0.748072  0.921109 1 1 1
C 0.997981  0.920638  0.956616 1 1 1
C 0.074593  0.776769  0.801935 1 1 1
C 0.384408  0.167512  0.082788 1 1 1
C 0.360356  0.255494  0.185565 1 1 1
C 0.293876  0.084381  0.100390 1 1 1
C 0.378053  0.227546  0.950773 1 1 1
C 0.859749  0.671300  0.585912 1 1 1
C 0.883596  0.761961  0.686557 1 1 1
C 0.952903  0.591024  0.607962 1 1 1
C 0.861660  0.728784  0.452239 1 1 1
C 0.776142  0.338749  0.349002 1 1 1
C 0.839671  0.247961  0.420245 1 1 1
C 0.672612  0.283006  0.298081 1 1 1
C 0.756784  0.422570  0.457137 1 1 1
H 0.237124  0.999575  0.443113 0 0 0
H 0.486538  0.002692  0.943499 0 0 0
H 0.032063  0.998805  0.673520 0 0 0
H 0.282340  0.998665  0.172602 0 0 0
H 0.258700  0.500895  0.449282 0 0 0
H 0.008641  0.500397  0.950548 0 0 0
H 0.074968  0.352851  0.095028 0 0 0
H 0.453370  0.855173  0.808761 0 0 0
H 0.206239  0.143103  0.308797 0 0 0
H 0.043729  0.642944  0.806608 0 0 0
H 0.468672  0.493231  0.673502 0 0 0
H 0.218952  0.505201  0.175264 0 0 0
H 0.737124  0.999575  0.443113 0 0 0
H 0.986538  0.002692  0.943499 0 0 0
H 0.532062  0.998805  0.673520 0 0 0
H 0.782340  0.998665  0.172602 0 0 0
H 0.758700  0.500895  0.449282 0 0 0
H 0.508641  0.500397  0.950548 0 0 0
H 0.574968  0.352851  0.095028 0 0 0
H 0.670154  0.855123  0.588560 0 0 0
H 0.706240  0.143103  0.308797 0 0 0
H 0.543729  0.642944  0.806608 0 0 0
H 0.968672  0.493231  0.673502 0 0 0
H 0.718952  0.505201  0.175264 0 0 0
H 0.164046  0.680343  0.678962 1 1 1
H 0.025492  0.713302  0.664954 1 1 1
H 0.106800  0.780615  0.783845 1 1 1
H 0.047362  0.952369  0.700016 1 1 1
H 0.962471  0.883683  0.584028 1 1 1
H 0.045179  0.990749  0.536360 1 1 1
H 0.185066  0.711177  0.447729 1 1 1
H 0.140516  0.823766  0.361694 1 1 1
H 0.044468  0.740064  0.433801 1 1 1
H 0.860355  0.222270  0.285908 1 1 1
H 0.779973  0.291359  0.167637 1 1 1
H 0.919046  0.322079  0.181584 1 1 1
H 0.939267  0.291915  0.950093 1 1 1
H 0.798215  0.265296  0.936260 1 1 1
H 0.892825  0.180410  0.863387 1 1 1
H 0.798094  0.051832  0.201035 1 1 1
H 0.795088  0.014193  0.037120 1 1 1
H 0.714153  0.122337  0.085684 1 1 1
H 0.386637  0.730796  0.787893 1 1 1
H 0.462613  0.799606  0.669288 1 1 1
H 0.323021  0.826836  0.679312 1 1 1
H 0.298692  0.791444  0.448306 1 1 1
H 0.440154  0.768368  0.438316 1 1 1
H 0.346311  0.679504  0.365958 1 1 1
H 0.451712  0.560426  0.709488 1 1 1
H 0.452250  0.519563  0.546780 1 1 1
H 0.531271  0.630806  0.593837 1 1 1
H 0.415935  0.278017  0.464259 1 1 1
H 0.292914  0.213866  0.501205 1 1 1
H 0.357250  0.180712  0.353361 1 1 1
H 0.193748  0.217818  0.229850 1 1 1
H 0.128543  0.246899  0.379918 1 1 1
H 0.115203  0.332624  0.243688 1 1 1
H 0.334911  0.451878  0.496601 1 1 1
H 0.212934  0.494670  0.428366 1 1 1
H 0.212598  0.386272  0.538756 1 1 1
H 0.888244  0.680548  0.855066 1 1 1
H 0.956782  0.713632  0.003725 1 1 1
H 0.834828  0.780857  0.962910 1 1 1
H 0.921586  0.952675  0.993842 1 1 1
H 0.042903  0.884079  0.039875 1 1 1
H 0.043278  0.991078  0.927477 1 1 1
H 0.050070  0.711393  0.734429 1 1 1
H 0.132231  0.824033  0.747878 1 1 1
H 0.119410  0.740408  0.885406 1 1 1
H 0.419039  0.322074  0.181598 1 1 1
H 0.279967  0.291349  0.167647 1 1 1
H 0.360351  0.222256  0.285913 1 1 1
H 0.298094  0.051821  0.201025 1 1 1
H 0.214153  0.122331  0.085679 1 1 1
H 0.295091  0.014193  0.037107 1 1 1
H 0.439265  0.291922  0.950106 1 1 1
H 0.392827  0.180420  0.863389 1 1 1
H 0.298214  0.265300  0.936267 1 1 1
H 0.823028  0.826833  0.679325 1 1 1
H 0.962619  0.799598  0.669297 1 1 1
H 0.886642  0.730784  0.787897 1 1 1
H 0.951713  0.560416  0.709478 1 1 1
H 0.031271  0.630802  0.593831 1 1 1
H 0.952248  0.519564  0.546766 1 1 1
H 0.798693  0.791452  0.448319 1 1 1
H 0.846307  0.679515  0.365959 1 1 1
H 0.940155  0.768373  0.438322 1 1 1
H 0.915935  0.278017  0.464259 1 1 1
H 0.792914  0.213866  0.501205 1 1 1
H 0.857250  0.180712  0.353361 1 1 1
H 0.693748  0.217818  0.229850 1 1 1
H 0.628543  0.246899  0.379918 1 1 1
H 0.615203  0.332624  0.243688 1 1 1
H 0.834911  0.451878  0.496601 1 1 1
H 0.712934  0.494670  0.428366 1 1 1
H 0.712598  0.386272  0.538756 1 1 1
N 0.308437  0.851253  0.704828 0 0 0
N 0.060729  0.148857  0.206052 0 0 0
N 0.186542  0.650310  0.705838 0 0 0
N 0.438810  0.350928  0.208041 0 0 0
N 0.808437  0.851253  0.704828 0 0 0
N 0.560729  0.148857  0.206052 0 0 0
N 0.686543  0.650310  0.705838 0 0 0
N 0.938810  0.350928  0.208041 0 0 0
Ni 0.247002  0.751486  0.836326 0 0 0
Ni 0.499972  0.247999  0.339178 0 0 0
Ni 0.747002  0.751486  0.836326 0 0 0
Ni 0.999972  0.247999  0.339178 0 0 0
O 0.122778  0.347689  0.382873 0 0 0
O 0.371208  0.650977  0.881292 0 0 0
O 0.377630  0.147507  0.377178 0 0 0
O 0.125098  0.852352  0.876261 0 0 0
O 0.473069  0.356160  0.482994 0 0 0
O 0.221137  0.641415  0.979877 0 0 0
O 0.028840  0.135158  0.481078 0 0 0
O 0.276686  0.862758  0.979399 0 0 0
O 0.622779  0.347689  0.382873 0 0 0
O 0.871208  0.650977  0.881292 0 0 0
O 0.877630  0.147507  0.377178 0 0 0
O 0.625098  0.852352  0.876261 0 0 0
O 0.973069  0.356160  0.482994 0 0 0
O 0.721137  0.641415  0.979877 0 0 0
O 0.528840  0.135158  0.481078 0 0 0
O 0.776686  0.862758  0.979399 0 0 0
