&CONTROL
   calculation = 'relax',
   prefix = 'NiPyC2_relax_sc211_ortho_functionalized_N-2CH3_pbesol_relax_frozen_parent_atoms',
   pseudo_dir = './pseudo/',
   outdir = '/nfs/hpc/share/gantzlen'
   wf_collect = .FALSE.,
   nstep = 200,
/
&SYSTEM
   ibrav = 0,
   nat = 172,
   ntyp = 5.000000,
   tot_charge = 0.000000,
   ecutwfc = 100.000000,
   
   vdw_corr = 'grimme-d2',
   occupations = 'smearing',
   degauss = 0.200000,
   smearing = 'mv',
   nspin = 2 ,
   starting_magnetization(4) = 0.250000,
   tot_magnetization = 8.000000
/
&ELECTRONS
    electron_maxstep = 40.000000,
    scf_must_converge = .FALSE.,
    conv_thr = 5.D-6,
    mixing_mode = 'local-TF',
    diagonalization = 'david',
/
&IONS
   ion_dynamics = 'bfgs',
/
&CELL
   cell_dynamics = 'bfgs'
   cell_dofree = 'xyz'
/
ATOMIC_SPECIES
C    12.010700    C.pbesol-nc.UPF
H    1.007940    H.pbesol-n-nc.UPF
N    14.006700    N.pbesol-nc.UPF
Ni    58.693400    Ni.pbesol-n-nc.UPF
O    15.999400    O.pbesol-nc.UPF
K_POINTS {gamma}
CELL_PARAMETERS {angstrom}
     12.505600   0.000000   0.000000
     0.000000   12.523400   0.000000
     -0.227594   0.000000   10.274279
ATOMIC_POSITIONS {crystal}
C 0.288212  0.970050  0.521984 0 0 0
C 0.038379  0.031106  0.022308 0 0 0
C 0.390634  0.011770  0.546492 0 0 0
C 0.140244  0.987744  0.046146 0 0 0
C 0.451915  0.970202  0.650371 0 0 0
C 0.202520  0.028353  0.149893 0 0 0
C 0.208181  0.529704  0.526384 0 0 0
C 0.458545  0.471409  0.027904 0 0 0
C 0.245137  0.613331  0.606435 0 0 0
C 0.496819  0.388677  0.108617 0 0 0
C 0.249476  0.889206  0.603203 0 0 0
C 0.001069  0.112232  0.104247 0 0 0
C 0.407977  0.889383  0.727552 0 0 0
C 0.159935  0.109547  0.227812 0 0 0
C 0.088862  0.608983  0.727352 0 0 0
C 0.340890  0.391633  0.229394 0 0 0
C 0.046925  0.525079  0.651312 0 0 0
C 0.297658  0.474711  0.152754 0 0 0
C 0.108164  0.484270  0.550116 0 0 0
C 0.357832  0.515656  0.050638 0 0 0
C 0.433310  0.099319  0.466621 0 0 0
C 0.181517  0.899720  0.965672 0 0 0
C 0.067378  0.394474  0.470676 0 0 0
C 0.316043  0.604172  0.969107 0 0 0
C 0.788212  0.970050  0.521984 0 0 0
C 0.538379  0.031106  0.022308 0 0 0
C 0.890634  0.011770  0.546492 0 0 0
C 0.640244  0.987744  0.046146 0 0 0
C 0.951915  0.970202  0.650371 0 0 0
C 0.702520  0.028353  0.149893 0 0 0
C 0.708182  0.529704  0.526384 0 0 0
C 0.958546  0.471409  0.027904 0 0 0
C 0.745137  0.613331  0.606435 0 0 0
C 0.996819  0.388677  0.108617 0 0 0
C 0.749476  0.889206  0.603203 0 0 0
C 0.501069  0.112232  0.104247 0 0 0
C 0.907977  0.889383  0.727552 0 0 0
C 0.659934  0.109547  0.227812 0 0 0
C 0.588862  0.608983  0.727352 0 0 0
C 0.840890  0.391633  0.229394 0 0 0
C 0.546925  0.525079  0.651312 0 0 0
C 0.797658  0.474711  0.152754 0 0 0
C 0.608164  0.484270  0.550116 0 0 0
C 0.857832  0.515656  0.050638 0 0 0
C 0.933310  0.099319  0.466621 0 0 0
C 0.681517  0.899720  0.965672 0 0 0
C 0.567377  0.394474  0.470676 0 0 0
C 0.816043  0.604172  0.969107 0 0 0
C 0.461082  0.731885  0.872572 1 1 1
C 0.524301  0.913230  0.934627 1 1 1
C 0.874566  0.271798  0.107420 1 1 1
C 0.799120  0.091877  0.061830 1 1 1
C 0.032463  0.767152  0.866207 1 1 1
C 0.977398  0.584801  0.932002 1 1 1
C 0.621982  0.227986  0.110940 1 1 1
C 0.698119  0.407967  0.071634 1 1 1
C 0.919987  0.809050  0.955541 1 1 1
C 0.081461  0.805899  0.819223 1 1 1
C 0.374566  0.271798  0.107420 1 1 1
C 0.299120  0.091877  0.061830 1 1 1
C 0.867281  0.776284  0.607623 1 1 1
C 0.946635  0.597591  0.569068 1 1 1
C 0.831463  0.308786  0.455613 1 1 1
C 0.666977  0.312094  0.315778 1 1 1
H 0.237124  0.999575  0.443113 0 0 0
H 0.486538  0.002692  0.943499 0 0 0
H 0.032063  0.998805  0.673520 0 0 0
H 0.282340  0.998665  0.172602 0 0 0
H 0.258700  0.500895  0.449282 0 0 0
H 0.008641  0.500397  0.950548 0 0 0
H 0.322641  0.650506  0.592635 0 0 0
H 0.074968  0.352851  0.095028 0 0 0
H 0.170154  0.855123  0.588560 0 0 0
H 0.206239  0.143103  0.308797 0 0 0
H 0.296378  0.357526  0.309051 0 0 0
H 0.468672  0.493231  0.673502 0 0 0
H 0.218952  0.505201  0.175264 0 0 0
H 0.737124  0.999575  0.443113 0 0 0
H 0.986538  0.002692  0.943499 0 0 0
H 0.532062  0.998805  0.673520 0 0 0
H 0.782340  0.998665  0.172602 0 0 0
H 0.758700  0.500895  0.449282 0 0 0
H 0.508641  0.500397  0.950548 0 0 0
H 0.670154  0.855123  0.588560 0 0 0
H 0.706240  0.143103  0.308797 0 0 0
H 0.543729  0.642944  0.806608 0 0 0
H 0.968672  0.493231  0.673502 0 0 0
H 0.718952  0.505201  0.175264 0 0 0
H 0.416785  0.685915  0.796448 1 1 1
H 0.542727  0.697299  0.880321 1 1 1
H 0.420768  0.721364  0.966955 1 1 1
H 0.517817  0.998968  0.908409 1 1 1
H 0.487627  0.904445  0.031467 1 1 1
H 0.609629  0.889317  0.944315 1 1 1
H 0.950144  0.316444  0.125025 1 1 1
H 0.835012  0.307434  0.019916 1 1 1
H 0.822136  0.282810  0.192237 1 1 1
H 0.819753  0.005804  0.057394 1 1 1
H 0.743315  0.101222  0.143612 1 1 1
H 0.756405  0.116906  0.970962 1 1 1
H 0.073580  0.813257  0.789868 1 1 1
H 0.949667  0.798719  0.870822 1 1 1
H 0.074069  0.781096  0.961314 1 1 1
H 0.986707  0.498876  0.908493 1 1 1
H 0.015477  0.596920  0.029523 1 1 1
H 0.891366  0.605604  0.938777 1 1 1
H 0.546345  0.183716  0.125606 1 1 1
H 0.659492  0.193474  0.023510 1 1 1
H 0.676012  0.215104  0.196759 1 1 1
H 0.678150  0.494273  0.068829 1 1 1
H 0.755479  0.396772  0.154542 1 1 1
H 0.738816  0.384087  0.981179 1 1 1
H 0.836078  0.837462  0.959393 1 1 1
H 0.963852  0.845403  0.039564 1 1 1
H 0.921070  0.720796  0.966345 1 1 1
H 0.110823  0.824330  0.720635 1 1 1
H 0.086970  0.717907  0.830900 1 1 1
H 0.134160  0.843254  0.894788 1 1 1
H 0.450144  0.316444  0.125025 1 1 1
H 0.335012  0.307434  0.019916 1 1 1
H 0.322136  0.282810  0.192237 1 1 1
H 0.319753  0.005804  0.057394 1 1 1
H 0.243315  0.101222  0.143612 1 1 1
H 0.256405  0.116906  0.970962 1 1 1
H 0.790873  0.819218  0.622256 1 1 1
H 0.903998  0.811186  0.519908 1 1 1
H 0.921210  0.790427  0.693234 1 1 1
H 0.928249  0.510928  0.566773 1 1 1
H 0.003921  0.610098  0.651767 1 1 1
H 0.986729  0.621912  0.478375 1 1 1
H 0.916272  0.334686  0.461790 1 1 1
H 0.790489  0.345321  0.539397 1 1 1
H 0.828026  0.220473  0.464728 1 1 1
H 0.636028  0.332635  0.216901 1 1 1
H 0.659142  0.224161  0.325676 1 1 1
H 0.617019  0.349997  0.390934 1 1 1
N 0.308437  0.851253  0.704828 0 0 0
N 0.060729  0.148857  0.206052 0 0 0
N 0.186542  0.650310  0.705838 0 0 0
N 0.438810  0.350928  0.208041 0 0 0
N 0.808437  0.851253  0.704828 0 0 0
N 0.560729  0.148857  0.206052 0 0 0
N 0.686543  0.650310  0.705838 0 0 0
N 0.938810  0.350928  0.208041 0 0 0
N 0.468446  0.844847  0.841129 1 1 1
N 0.892758  0.158616  0.085151 1 1 1
N 0.028886  0.653393  0.837923 1 1 1
N 0.604338  0.341671  0.091031 1 1 1
N 0.971262  0.839560  0.835444 1 1 1
N 0.392758  0.158616  0.085151 1 1 1
N 0.851692  0.662233  0.588364 1 1 1
N 0.778493  0.342315  0.334985 1 1 1
Ni 0.247002  0.751486  0.836326 0 0 0
Ni 0.499972  0.247999  0.339178 0 0 0
Ni 0.747002  0.751486  0.836326 0 0 0
Ni 0.999972  0.247999  0.339178 0 0 0
O 0.122778  0.347689  0.382873 0 0 0
O 0.371208  0.650977  0.881292 0 0 0
O 0.377630  0.147507  0.377178 0 0 0
O 0.125098  0.852352  0.876261 0 0 0
O 0.473069  0.356160  0.482994 0 0 0
O 0.221137  0.641415  0.979877 0 0 0
O 0.028840  0.135158  0.481078 0 0 0
O 0.276686  0.862758  0.979399 0 0 0
O 0.622779  0.347689  0.382873 0 0 0
O 0.871208  0.650977  0.881292 0 0 0
O 0.877630  0.147507  0.377178 0 0 0
O 0.625098  0.852352  0.876261 0 0 0
O 0.973069  0.356160  0.482994 0 0 0
O 0.721137  0.641415  0.979877 0 0 0
O 0.528840  0.135158  0.481078 0 0 0
O 0.776686  0.862758  0.979399 0 0 0
