&CONTROL
   calculation = 'relax',
   prefix = 'NiPyC2_relax_sc211_ortho_functionalized_CH2-CH3_pbesol_relax',
   pseudo_dir = './pseudo/',
   outdir = '/nfs/hpc/share/gantzlen'
   wf_collect = .FALSE.,
   nstep = 200,
/
&SYSTEM
   ibrav = 0,
   nat = 156,
   ntyp = 5.000000,
   tot_charge = 0.000000,
   ecutwfc = 100.000000,
   
   vdw_corr = 'grimme-d2',
   occupations = 'smearing',
   degauss = 0.200000,
   smearing = 'mv',
   nspin = 2 ,
   starting_magnetization(4) = 0.250000,
   tot_magnetization = 8.000000
/
&ELECTRONS
    electron_maxstep = 90.000000,
    scf_must_converge = .TRUE.,
    conv_thr = 1.D-6,
    mixing_mode = 'local-TF',
    diagonalization = 'david',
/
&IONS
   ion_dynamics = 'bfgs',
/
&CELL
   cell_dynamics = 'bfgs'
   cell_dofree = 'xyz'
/
ATOMIC_SPECIES
C    12.010700    C.pbesol-nc.UPF
H    1.007940    H.pbesol-n-nc.UPF
N    14.006700    N.pbesol-nc.UPF
Ni    58.693400    Ni.pbesol-n-nc.UPF
O    15.999400    O.pbesol-nc.UPF
K_POINTS {gamma}
CELL_PARAMETERS {angstrom}
     12.505600   0.000000   0.000000
     0.000000   12.523400   0.000000
     -0.227594   0.000000   10.274279
ATOMIC_POSITIONS {crystal}
C 0.288212  0.970050  0.521984
C 0.038379  0.031106  0.022308
C 0.390634  0.011770  0.546492
C 0.140244  0.987744  0.046146
C 0.451915  0.970202  0.650371
C 0.202520  0.028353  0.149893
C 0.208181  0.529704  0.526384
C 0.458545  0.471409  0.027904
C 0.245137  0.613331  0.606435
C 0.496819  0.388677  0.108617
C 0.249476  0.889206  0.603203
C 0.001069  0.112232  0.104247
C 0.407977  0.889383  0.727552
C 0.159935  0.109547  0.227812
C 0.088862  0.608983  0.727352
C 0.340890  0.391633  0.229394
C 0.046925  0.525079  0.651312
C 0.297658  0.474711  0.152754
C 0.108164  0.484270  0.550116
C 0.357832  0.515656  0.050638
C 0.433310  0.099319  0.466621
C 0.181517  0.899720  0.965672
C 0.067378  0.394474  0.470676
C 0.316043  0.604172  0.969107
C 0.788212  0.970050  0.521984
C 0.538379  0.031106  0.022308
C 0.890634  0.011770  0.546492
C 0.640244  0.987744  0.046146
C 0.951915  0.970202  0.650371
C 0.702520  0.028353  0.149893
C 0.708182  0.529704  0.526384
C 0.958546  0.471409  0.027904
C 0.745137  0.613331  0.606435
C 0.996819  0.388677  0.108617
C 0.749476  0.889206  0.603203
C 0.501069  0.112232  0.104247
C 0.907977  0.889383  0.727552
C 0.659934  0.109547  0.227812
C 0.588862  0.608983  0.727352
C 0.840890  0.391633  0.229394
C 0.546925  0.525079  0.651312
C 0.797658  0.474711  0.152754
C 0.608164  0.484270  0.550116
C 0.857832  0.515656  0.050638
C 0.933310  0.099319  0.466621
C 0.681517  0.899720  0.965672
C 0.567377  0.394474  0.470676
C 0.816043  0.604172  0.969107
C 0.135201  0.842626  0.574314
C 0.097880  0.754810  0.666444
C 0.887492  0.160720  0.075893
C 0.851688  0.248707  0.168704
C 0.019777  0.655058  0.839629
C 0.070105  0.746374  0.918805
C 0.609402  0.339675  0.081848
C 0.646288  0.249853  0.173357
C 0.635201  0.842626  0.574313
C 0.597877  0.754815  0.666449
C 0.730670  0.154959  0.342961
C 0.679884  0.243152  0.424176
C 0.519778  0.655059  0.839629
C 0.570103  0.746379  0.918800
C 0.109402  0.339675  0.081849
C 0.146285  0.249848  0.173353
H 0.237124  0.999575  0.443113
H 0.486538  0.002692  0.943499
H 0.032063  0.998805  0.673520
H 0.282340  0.998665  0.172602
H 0.258700  0.500895  0.449282
H 0.008641  0.500397  0.950548
H 0.322641  0.650506  0.592635
H 0.422322  0.147732  0.089886
H 0.453370  0.855173  0.808761
H 0.206239  0.143103  0.308797
H 0.296378  0.357526  0.309051
H 0.468672  0.493231  0.673502
H 0.218952  0.505201  0.175264
H 0.737124  0.999575  0.443113
H 0.986538  0.002692  0.943499
H 0.532062  0.998805  0.673520
H 0.782340  0.998665  0.172602
H 0.758700  0.500895  0.449282
H 0.508641  0.500397  0.950548
H 0.822641  0.650506  0.592635
H 0.953370  0.855173  0.808761
H 0.796378  0.357526  0.309051
H 0.968672  0.493231  0.673502
H 0.718952  0.505201  0.175264
H 0.133256  0.808122  0.474672
H 0.075939  0.908506  0.579687
H 0.151993  0.684604  0.662419
H 0.016268  0.728400  0.636220
H 0.094494  0.785307  0.767769
H 0.885964  0.195684  0.976491
H 0.827204  0.095754  0.080936
H 0.906898  0.318074  0.165049
H 0.770468  0.276523  0.138826
H 0.847951  0.217827  0.269829
H 0.002672  0.589754  0.909349
H 0.943382  0.685865  0.797022
H 0.145468  0.719660  0.967926
H 0.013930  0.772070  0.994932
H 0.085989  0.816079  0.855242
H 0.670373  0.404017  0.089959
H 0.608648  0.306362  0.981615
H 0.652307  0.279011  0.275339
H 0.726687  0.221835  0.144761
H 0.590386  0.181044  0.166651
H 0.575940  0.908506  0.579683
H 0.633256  0.808118  0.474673
H 0.594491  0.785316  0.767772
H 0.516266  0.728405  0.636225
H 0.651989  0.684607  0.662429
H 0.751190  0.088629  0.410855
H 0.805206  0.188689  0.302789
H 0.606432  0.213395  0.471015
H 0.737236  0.268647  0.502177
H 0.660619  0.313775  0.362605
H 0.443381  0.685863  0.797022
H 0.502675  0.589755  0.909352
H 0.585984  0.816081  0.855232
H 0.513928  0.772076  0.994925
H 0.645468  0.719669  0.967921
H 0.108648  0.306365  0.981614
H 0.170375  0.404015  0.089964
H 0.090380  0.181041  0.166641
H 0.226683  0.221829  0.144756
H 0.152304  0.279001  0.275337
N 0.308437  0.851253  0.704828
N 0.060729  0.148857  0.206052
N 0.186542  0.650310  0.705838
N 0.438810  0.350928  0.208041
N 0.808437  0.851253  0.704828
N 0.560729  0.148857  0.206052
N 0.686543  0.650310  0.705838
N 0.938810  0.350928  0.208041
Ni 0.247002  0.751486  0.836326
Ni 0.499972  0.247999  0.339178
Ni 0.747002  0.751486  0.836326
Ni 0.999972  0.247999  0.339178
O 0.122778  0.347689  0.382873
O 0.371208  0.650977  0.881292
O 0.377630  0.147507  0.377178
O 0.125098  0.852352  0.876261
O 0.473069  0.356160  0.482994
O 0.221137  0.641415  0.979877
O 0.028840  0.135158  0.481078
O 0.276686  0.862758  0.979399
O 0.622779  0.347689  0.382873
O 0.871208  0.650977  0.881292
O 0.877630  0.147507  0.377178
O 0.625098  0.852352  0.876261
O 0.973069  0.356160  0.482994
O 0.721137  0.641415  0.979877
O 0.528840  0.135158  0.481078
O 0.776686  0.862758  0.979399
