&CONTROL
   calculation = 'relax',
   prefix = 'NiPyC2_relax_meta_functionalized_Cl_vdw-df2_relax',
   pseudo_dir = './pseudo/',
   outdir = './QE_relaxation_results/VDW_relax'
   nstep = 200,
/
&SYSTEM
   ibrav = 0,
   nat = 54,
   ntyp = 6.000000,
   tot_charge = 0.000000,
   ecutwfc = 100.000000,
   input_dft = 'vdw-df2',
   vdw_corr = 'grimme-d2',
   occupations = 'smearing',
   degauss = 0.200000,
   smearing = 'mv',
   nspin = 2 ,
   starting_magnetization(5) = 0.250000,
   tot_magnetization = 4.000000
/
&ELECTRONS
   electron_maxstep = 90.000000,
   mixing_mode = 'local-TF',
   diagonalization = 'david',
/
&IONS
   ion_dynamics = 'bfgs',
/
&CELL
   cell_dynamics = 'bfgs'
   cell_dofree = 'xyz'
/
ATOMIC_SPECIES
C    12.010700    C.pbesol-nc.UPF
Cl    35.453000    Cl.pbesol-n-nc.UPF
H    1.007940    H.pbesol-n-nc.UPF
N    14.006700    N.pbesol-nc.UPF
Ni    58.693400    Ni.pbesol-n-nc.UPF
O    15.999400    O.pbesol-nc.UPF
K_POINTS {gamma}
CELL_PARAMETERS {angstrom}
     6.252800   0.000000   0.000000
     0.000000   12.523400   0.000000
     -0.227594   0.000000   10.274279
ATOMIC_POSITIONS {crystal}
C    0.576425  0.970050  0.521984
C    0.076758  0.031106  0.022308
C    0.781269  0.011770  0.546492
C    0.280489  0.987744  0.046146
C    0.903830  0.970202  0.650371
C    0.405041  0.028353  0.149893
C    0.416363  0.529704  0.526384
C    0.917091  0.471409  0.027904
C    0.490274  0.613331  0.606435
C    0.993638  0.388677  0.108617
C    0.498952  0.889206  0.603203
C    0.002139  0.112232  0.104247
C    0.815954  0.889383  0.727552
C    0.319869  0.109547  0.227812
C    0.177724  0.608983  0.727352
C    0.681780  0.391633  0.229394
C    0.093850  0.525079  0.651312
C    0.595316  0.474711  0.152754
C    0.216328  0.484270  0.550116
C    0.715665  0.515656  0.050638
C    0.866619  0.099319  0.466621
C    0.363035  0.899720  0.965672
C    0.134755  0.394474  0.470676
C    0.632086  0.604172  0.969107
Cl    0.405931  0.013162  0.393335
Cl    0.665622  0.983681  0.189844
Cl    0.584361  0.488099  0.400463
Cl    0.338683  0.521228  0.192058
H    0.973076  0.002692  0.943499
H    0.064125  0.998805  0.673520
H    0.017282  0.500397  0.950548
H    0.645282  0.650506  0.592635
H    0.149937  0.352851  0.095028
H    0.340308  0.855123  0.588560
H    0.844645  0.147732  0.089886
H    0.906740  0.855173  0.808761
H    0.412479  0.143103  0.308797
H    0.087458  0.642944  0.806608
H    0.592757  0.357526  0.309051
H    0.937343  0.493231  0.673502
N    0.616875  0.851253  0.704828
N    0.121459  0.148857  0.206052
N    0.373085  0.650310  0.705838
N    0.877620  0.350928  0.208041
Ni    0.494004  0.751486  0.836326
Ni    0.999945  0.247999  0.339178
O    0.245557  0.347689  0.382873
O    0.742416  0.650977  0.881292
O    0.755261  0.147507  0.377178
O    0.250196  0.852352  0.876261
O    0.946138  0.356160  0.482994
O    0.442275  0.641415  0.979877
O    0.057679  0.135158  0.481078
O    0.553372  0.862758  0.979399
