&CONTROL
   calculation = 'relax',
   prefix = 'NiPyC2_relax_sc211_meta_functionalized_N-2CH3_pbesol_relax',
   pseudo_dir = './pseudo/',
   outdir = '/nfs/hpc/share/gantzlen'
   wf_collect = .FALSE.,
   nstep = 200,
/
&SYSTEM
   ibrav = 0,
   nat = 172,
   ntyp = 8.000000,
   tot_charge = 0.000000,
   ecutwfc = 100.000000,
   
   vdw_corr = 'grimme-d2',
   occupations = 'smearing',
   degauss = 0.200000,
   smearing = 'mv',
   nspin = 2 ,
   starting_magnetization(7) = 0.250000,
   tot_magnetization = 8.000000
/
&ELECTRONS
    electron_maxstep = 40.000000,
    scf_must_converge = .FALSE.,
    conv_thr = 5.D-6,
    mixing_mode = 'local-TF',
    diagonalization = 'david',
/
&IONS
   ion_dynamics = 'bfgs',
/
&CELL
   cell_dynamics = 'bfgs'
   cell_dofree = 'xyz'
/
ATOMIC_SPECIES
C    12.010700    C.pbesol-nc.UPF
H    1.007940    H.pbesol-n-nc.UPF
N    14.006700    N.pbesol-nc.UPF
Ni    58.693400    Ni.pbesol-n-nc.UPF
O    15.999400    O.pbesol-nc.UPF
K_POINTS {gamma}
CELL_PARAMETERS {angstrom}
     12.505600   0.000000   0.000000
     0.000000   12.523400   0.000000
     -0.227594   0.000000   10.274279
ATOMIC_POSITIONS {crystal}
C 0.288212  0.970050  0.521984 0 0 0
C 0.038379  0.031106  0.022308 0 0 0
C 0.390634  0.011770  0.546492 0 0 0
C 0.140244  0.987744  0.046146 0 0 0
C 0.451915  0.970202  0.650371 0 0 0
C 0.202520  0.028353  0.149893 0 0 0
C 0.208181  0.529704  0.526384 0 0 0
C 0.458545  0.471409  0.027904 0 0 0
C 0.245137  0.613331  0.606435 0 0 0
C 0.496819  0.388677  0.108617 0 0 0
C 0.249476  0.889206  0.603203 0 0 0
C 0.001069  0.112232  0.104247 0 0 0
C 0.407977  0.889383  0.727552 0 0 0
C 0.159935  0.109547  0.227812 0 0 0
C 0.088862  0.608983  0.727352 0 0 0
C 0.340890  0.391633  0.229394 0 0 0
C 0.046925  0.525079  0.651312 0 0 0
C 0.297658  0.474711  0.152754 0 0 0
C 0.108164  0.484270  0.550116 0 0 0
C 0.357832  0.515656  0.050638 0 0 0
C 0.433310  0.099319  0.466621 0 0 0
C 0.181517  0.899720  0.965672 0 0 0
C 0.067378  0.394474  0.470676 0 0 0
C 0.316043  0.604172  0.969107 0 0 0
C 0.788212  0.970050  0.521984 0 0 0
C 0.538379  0.031106  0.022308 0 0 0
C 0.890634  0.011770  0.546492 0 0 0
C 0.640244  0.987744  0.046146 0 0 0
C 0.951915  0.970202  0.650371 0 0 0
C 0.702520  0.028353  0.149893 0 0 0
C 0.708182  0.529704  0.526384 0 0 0
C 0.958546  0.471409  0.027904 0 0 0
C 0.745137  0.613331  0.606435 0 0 0
C 0.996819  0.388677  0.108617 0 0 0
C 0.749476  0.889206  0.603203 0 0 0
C 0.501069  0.112232  0.104247 0 0 0
C 0.907977  0.889383  0.727552 0 0 0
C 0.659934  0.109547  0.227812 0 0 0
C 0.588862  0.608983  0.727352 0 0 0
C 0.840890  0.391633  0.229394 0 0 0
C 0.546925  0.525079  0.651312 0 0 0
C 0.797658  0.474711  0.152754 0 0 0
C 0.608164  0.484270  0.550116 0 0 0
C 0.857832  0.515656  0.050638 0 0 0
C 0.933310  0.099319  0.466621 0 0 0
C 0.681517  0.899720  0.965672 0 0 0
C 0.567377  0.394474  0.470676 0 0 0
C 0.816043  0.604172  0.969107 0 0 0
C 0.104259  0.012373  0.426631 1 1 1
C 0.261102  0.014715  0.282614 1 1 1
C 0.897867  0.068780  0.846532 1 1 1
C 0.948342  0.880977  0.895298 1 1 1
C 0.904234  0.479681  0.813617 1 1 1
C 0.859761  0.471430  0.577120 1 1 1
C 0.155323  0.519483  0.315850 1 1 1
C 0.109501  0.525835  0.079613 1 1 1
C 0.141164  0.935217  0.733037 1 1 1
C 0.081877  0.122068  0.694758 1 1 1
C 0.397867  0.068780  0.846532 1 1 1
C 0.448342  0.880977  0.895298 1 1 1
C 0.843113  0.567494  0.351699 1 1 1
C 0.798985  0.379469  0.405388 1 1 1
C 0.609316  0.444609  0.231226 1 1 1
C 0.673494  0.629979  0.197319 1 1 1
H 0.282340  0.998665  0.172602 0 0 0
H 0.258700  0.500895  0.449282 0 0 0
H 0.008641  0.500397  0.950548 0 0 0
H 0.322641  0.650506  0.592635 0 0 0
H 0.074968  0.352851  0.095028 0 0 0
H 0.170154  0.855123  0.588560 0 0 0
H 0.422322  0.147732  0.089886 0 0 0
H 0.453370  0.855173  0.808761 0 0 0
H 0.206239  0.143103  0.308797 0 0 0
H 0.043729  0.642944  0.806608 0 0 0
H 0.296378  0.357526  0.309051 0 0 0
H 0.468672  0.493231  0.673502 0 0 0
H 0.737124  0.999575  0.443113 0 0 0
H 0.532062  0.998805  0.673520 0 0 0
H 0.782340  0.998665  0.172602 0 0 0
H 0.508641  0.500397  0.950548 0 0 0
H 0.822641  0.650506  0.592635 0 0 0
H 0.574968  0.352851  0.095028 0 0 0
H 0.670154  0.855123  0.588560 0 0 0
H 0.922322  0.147732  0.089886 0 0 0
H 0.953370  0.855173  0.808761 0 0 0
H 0.706240  0.143103  0.308797 0 0 0
H 0.543729  0.642944  0.806608 0 0 0
H 0.796378  0.357526  0.309051 0 0 0
H 0.079452  0.001945  0.528843 1 1 1
H 0.077893  0.093288  0.395569 1 1 1
H 0.062708  0.951886  0.364718 1 1 1
H 0.347981  0.997191  0.279533 1 1 1
H 0.220806  0.956556  0.216342 1 1 1
H 0.244466  0.096197  0.244603 1 1 1
H 0.916198  0.153219  0.870932 1 1 1
H 0.910921  0.059027  0.740679 1 1 1
H 0.812451  0.052739  0.866673 1 1 1
H 0.996820  0.830193  0.962547 1 1 1
H 0.863287  0.861142  0.912604 1 1 1
H 0.965546  0.860913  0.792591 1 1 1
H 0.970038  0.494069  0.885678 1 1 1
H 0.873914  0.397735  0.831243 1 1 1
H 0.838958  0.537843  0.830675 1 1 1
H 0.891489  0.488591  0.479337 1 1 1
H 0.791836  0.527098  0.590938 1 1 1
H 0.828179  0.388626  0.580959 1 1 1
H 0.221661  0.506253  0.387520 1 1 1
H 0.124179  0.601192  0.332979 1 1 1
H 0.090810  0.460706  0.333960 1 1 1
H 0.140891  0.508443  0.981721 1 1 1
H 0.042294  0.469503  0.094481 1 1 1
H 0.077011  0.608304  0.082956 1 1 1
H 0.116329  0.850427  0.724147 1 1 1
H 0.213545  0.945160  0.673569 1 1 1
H 0.162282  0.952455  0.836479 1 1 1
H 0.011273  0.171878  0.668483 1 1 1
H 0.104890  0.143103  0.796544 1 1 1
H 0.150074  0.142247  0.631852 1 1 1
H 0.416198  0.153219  0.870932 1 1 1
H 0.410921  0.059027  0.740679 1 1 1
H 0.312451  0.052739  0.866673 1 1 1
H 0.496820  0.830193  0.962547 1 1 1
H 0.363287  0.861142  0.912604 1 1 1
H 0.465546  0.860913  0.792591 1 1 1
H 0.823114  0.651889  0.373248 1 1 1
H 0.827631  0.555212  0.245953 1 1 1
H 0.929463  0.554172  0.373639 1 1 1
H 0.753604  0.328806  0.473426 1 1 1
H 0.885004  0.362287  0.424604 1 1 1
H 0.779714  0.356835  0.303037 1 1 1
H 0.631306  0.359207  0.221325 1 1 1
H 0.535876  0.457487  0.170560 1 1 1
H 0.591149  0.461257  0.334583 1 1 1
H 0.745015  0.677896  0.173240 1 1 1
H 0.653512  0.650501  0.299050 1 1 1
H 0.604475  0.652999  0.133471 1 1 1
N 0.308437  0.851253  0.704828 0 0 0
N 0.060729  0.148857  0.206052 0 0 0
N 0.186542  0.650310  0.705838 0 0 0
N 0.438810  0.350928  0.208041 0 0 0
N 0.808437  0.851253  0.704828 0 0 0
N 0.560729  0.148857  0.206052 0 0 0
N 0.686543  0.650310  0.705838 0 0 0
N 0.938810  0.350928  0.208041 0 0 0
N 0.219392  0.003156  0.412833 1 1 1
N 0.965745  0.994229  0.918777 1 1 1
N 0.939625  0.488061  0.680135 1 1 1
N 0.190086  0.510700  0.182147 1 1 1
N 0.058419  0.008485  0.686924 1 1 1
N 0.465745  0.994229  0.918777 1 1 1
N 0.779108  0.492663  0.425156 1 1 1
N 0.693239  0.515831  0.187946 1 1 1
Ni 0.247002  0.751486  0.836326 0 0 0
Ni 0.499972  0.247999  0.339178 0 0 0
Ni 0.747002  0.751486  0.836326 0 0 0
Ni 0.999972  0.247999  0.339178 0 0 0
O 0.122778  0.347689  0.382873 0 0 0
O 0.371208  0.650977  0.881292 0 0 0
O 0.377630  0.147507  0.377178 0 0 0
O 0.125098  0.852352  0.876261 0 0 0
O 0.473069  0.356160  0.482994 0 0 0
O 0.221137  0.641415  0.979877 0 0 0
O 0.028840  0.135158  0.481078 0 0 0
O 0.276686  0.862758  0.979399 0 0 0
O 0.622779  0.347689  0.382873 0 0 0
O 0.871208  0.650977  0.881292 0 0 0
O 0.877630  0.147507  0.377178 0 0 0
O 0.625098  0.852352  0.876261 0 0 0
O 0.973069  0.356160  0.482994 0 0 0
O 0.721137  0.641415  0.979877 0 0 0
O 0.528840  0.135158  0.481078 0 0 0
O 0.776686  0.862758  0.979399 0 0 0
