&CONTROL
   calculation = 'relax',
   prefix = 'NiPyC2_vdw-df2_relax',
   pseudo_dir = './pseudo/',
   outdir = './QE_relaxation_results/VDW_relax'
   nstep = 200,
/
&SYSTEM
   ibrav = 0,
   nat = 54,
   ntyp = 5.000000,
   tot_charge = 0.000000,
   ecutwfc = 100.000000,
   input_dft = 'vdw-df2',
   vdw_corr = 'grimme-d2',
   occupations = 'smearing',
   degauss = 0.200000,
   smearing = 'mv',
   nspin = 2 ,
   starting_magnetization(Ni) = 0.250000,
   tot_magnetization = 4.000000
/
&ELECTRONS
   electron_maxstep = 90.000000,
   mixing_mode = 'local-TF',
   diagonalization = 'david',
/
&IONS
   ion_dynamics = 'bfgs',
/
&CELL
   cell_dynamics = 'bfgs'
   cell_dofree = 'xyz'
/
ATOMIC_SPECIES
C    12.010700    C.pbesol-nc.UPF
H    1.007940    H.pbesol-n-nc.UPF
N    14.006700    N.pbesol-nc.UPF
Ni    58.693400    Ni.pbesol-n-nc.UPF
O    15.999400    O.pbesol-nc.UPF
K_POINTS {gamma}
CELL_PARAMETERS {angstrom}
     6.252800   0.000000   0.000000
     0.000000   12.523400   0.000000
     -0.227594   0.000000   10.274279
ATOMIC_POSITIONS {crystal}
C    0.587800  0.959300  0.513400
C    0.793200  0.998000  0.533700
C    0.917100  0.954600  0.635400
C    0.407700  0.519100  0.544100
C    0.480300  0.603200  0.621700
C    0.511500  0.880900  0.595000
C    0.828500  0.877700  0.713700
C    0.164500  0.604500  0.734600
C    0.082600  0.520300  0.662600
C    0.207900  0.477000  0.564600
C    0.878000  0.089300  0.455000
C    0.122000  0.386200  0.481500
C    0.087800  0.040700  0.013400
C    0.293200  0.002000  0.033700
C    0.417100  0.045400  0.135400
C    0.907700  0.480900  0.044100
C    0.980300  0.396800  0.121700
C    0.011500  0.119100  0.095000
C    0.328500  0.122300  0.213700
C    0.664500  0.395500  0.234600
C    0.582600  0.479700  0.162600
C    0.707900  0.523000  0.064600
C    0.378000  0.910700  0.955000
C    0.622000  0.613800  0.981500
H    0.500200  0.986200  0.444100
H    0.060200  0.977800  0.650500
H    0.495100  0.491000  0.477800
H    0.619100  0.631300  0.607900
H    0.372100  0.853000  0.579100
H    0.913300  0.848300  0.782600
H    0.079300  0.634600  0.800700
H    0.944600  0.492500  0.679100
H    0.000200  0.013800  0.944100
H    0.560200  0.022200  0.150500
H    0.995100  0.509000  0.977800
H    0.119100  0.368700  0.107900
H    0.872100  0.147000  0.079100
H    0.413300  0.151700  0.282600
H    0.579300  0.365400  0.300700
H    0.444600  0.507500  0.179100
N    0.627900  0.842900  0.696200
N    0.361100  0.646100  0.715100
N    0.127900  0.157100  0.196200
N    0.861100  0.353900  0.215100
Ni    0.494800  0.753960  0.839430
Ni    0.994800  0.246040  0.339430
O    0.241300  0.349620  0.392900
O    0.754900  0.133080  0.370200
O    0.936900  0.352230  0.497300
O    0.066500  0.119800  0.474200
O    0.741300  0.650380  0.892900
O    0.254900  0.866920  0.870200
O    0.436900  0.647770  0.997300
O    0.566500  0.880200  0.974200
