&CONTROL
   calculation = 'relax',
   prefix = 'NiPyC2_relax_sc211_meta_functionalized_P-2CH3_pbesol_relax',
   pseudo_dir = './pseudo/',
   outdir = '/nfs/hpc/share/gantzlen'
   wf_collect = .FALSE.,
   nstep = 200,
/
&SYSTEM
   ibrav = 0,
   nat = 172,
   ntyp = 8.000000,
   tot_charge = 0.000000,
   ecutwfc = 100.000000,
   
   vdw_corr = 'grimme-d2',
   occupations = 'smearing',
   degauss = 0.200000,
   smearing = 'mv',
   nspin = 2 ,
   starting_magnetization(6) = 0.250000,
   tot_magnetization = 8.000000
/
&ELECTRONS
    electron_maxstep = 40.000000,
    scf_must_converge = .FALSE.,
    conv_thr = 5.D-6,
    mixing_mode = 'local-TF',
    diagonalization = 'david',
/
&IONS
   ion_dynamics = 'bfgs',
/
&CELL
   cell_dynamics = 'bfgs'
   cell_dofree = 'xyz'
/
ATOMIC_SPECIES
C    12.010700    C.pbesol-nc.UPF
H    1.007940    H.pbesol-n-nc.UPF
N    14.006700    N.pbesol-nc.UPF
Ni    58.693400    Ni.pbesol-n-nc.UPF
O    15.999400    O.pbesol-nc.UPF
P    30.973762    P.pbesol-n-nc.UPF
K_POINTS {gamma}
CELL_PARAMETERS {angstrom}
     12.505600   0.000000   0.000000
     0.000000   12.523400   0.000000
     -0.227594   0.000000   10.274279
ATOMIC_POSITIONS {crystal}
C 0.288212  0.970050  0.521984 0 0 0
C 0.038379  0.031106  0.022308 0 0 0
C 0.390634  0.011770  0.546492 0 0 0
C 0.140244  0.987744  0.046146 0 0 0
C 0.451915  0.970202  0.650371 0 0 0
C 0.202520  0.028353  0.149893 0 0 0
C 0.208181  0.529704  0.526384 0 0 0
C 0.458545  0.471409  0.027904 0 0 0
C 0.245137  0.613331  0.606435 0 0 0
C 0.496819  0.388677  0.108617 0 0 0
C 0.249476  0.889206  0.603203 0 0 0
C 0.001069  0.112232  0.104247 0 0 0
C 0.407977  0.889383  0.727552 0 0 0
C 0.159935  0.109547  0.227812 0 0 0
C 0.088862  0.608983  0.727352 0 0 0
C 0.340890  0.391633  0.229394 0 0 0
C 0.046925  0.525079  0.651312 0 0 0
C 0.297658  0.474711  0.152754 0 0 0
C 0.108164  0.484270  0.550116 0 0 0
C 0.357832  0.515656  0.050638 0 0 0
C 0.433310  0.099319  0.466621 0 0 0
C 0.181517  0.899720  0.965672 0 0 0
C 0.067378  0.394474  0.470676 0 0 0
C 0.316043  0.604172  0.969107 0 0 0
C 0.788212  0.970050  0.521984 0 0 0
C 0.538379  0.031106  0.022308 0 0 0
C 0.890634  0.011770  0.546492 0 0 0
C 0.640244  0.987744  0.046146 0 0 0
C 0.951915  0.970202  0.650371 0 0 0
C 0.702520  0.028353  0.149893 0 0 0
C 0.708182  0.529704  0.526384 0 0 0
C 0.958546  0.471409  0.027904 0 0 0
C 0.745137  0.613331  0.606435 0 0 0
C 0.996819  0.388677  0.108617 0 0 0
C 0.749476  0.889206  0.603203 0 0 0
C 0.501069  0.112232  0.104247 0 0 0
C 0.907977  0.889383  0.727552 0 0 0
C 0.659934  0.109547  0.227812 0 0 0
C 0.588862  0.608983  0.727352 0 0 0
C 0.840890  0.391633  0.229394 0 0 0
C 0.546925  0.525079  0.651312 0 0 0
C 0.797658  0.474711  0.152754 0 0 0
C 0.608164  0.484270  0.550116 0 0 0
C 0.857832  0.515656  0.050638 0 0 0
C 0.933310  0.099319  0.466621 0 0 0
C 0.681517  0.899720  0.965672 0 0 0
C 0.567377  0.394474  0.470676 0 0 0
C 0.816043  0.604172  0.969107 0 0 0
C 0.083692  0.925791  0.380160 1 1 1
C 0.272892  0.952865  0.248468 1 1 1
C 0.834194  0.079019  0.881603 1 1 1
C 0.022596  0.049649  0.748966 1 1 1
C 0.407389  0.580160  0.387434 1 1 1
C 0.216438  0.543015  0.252805 1 1 1
C 0.109828  0.434211  0.316963 1 1 1
C 0.086725  0.464958  0.050658 1 1 1
C 0.583692  0.925791  0.380160 1 1 1
C 0.772892  0.952865  0.248468 1 1 1
C 0.894239  0.070002  0.317360 1 1 1
C 0.910413  0.043464  0.050685 1 1 1
C 0.924116  0.554635  0.416410 1 1 1
C 0.840026  0.354413  0.466901 1 1 1
C 0.158961  0.423215  0.889980 1 1 1
C 0.967815  0.456860  0.754355 1 1 1
H 0.486538  0.002692  0.943499 0 0 0
H 0.032063  0.998805  0.673520 0 0 0
H 0.282340  0.998665  0.172602 0 0 0
H 0.322641  0.650506  0.592635 0 0 0
H 0.074968  0.352851  0.095028 0 0 0
H 0.170154  0.855123  0.588560 0 0 0
H 0.422322  0.147732  0.089886 0 0 0
H 0.453370  0.855173  0.808761 0 0 0
H 0.206239  0.143103  0.308797 0 0 0
H 0.043729  0.642944  0.806608 0 0 0
H 0.296378  0.357526  0.309051 0 0 0
H 0.468672  0.493231  0.673502 0 0 0
H 0.532062  0.998805  0.673520 0 0 0
H 0.508641  0.500397  0.950548 0 0 0
H 0.822641  0.650506  0.592635 0 0 0
H 0.574968  0.352851  0.095028 0 0 0
H 0.670154  0.855123  0.588560 0 0 0
H 0.922322  0.147732  0.089886 0 0 0
H 0.953370  0.855173  0.808761 0 0 0
H 0.706240  0.143103  0.308797 0 0 0
H 0.543729  0.642944  0.806608 0 0 0
H 0.796378  0.357526  0.309051 0 0 0
H 0.968672  0.493231  0.673502 0 0 0
H 0.718952  0.505201  0.175264 0 0 0
H 0.033378  0.940280  0.465955 1 1 1
H 0.110585  0.841331  0.378771 1 1 1
H 0.034694  0.940810  0.290727 1 1 1
H 0.353023  0.988875  0.237054 1 1 1
H 0.226432  0.963153  0.156101 1 1 1
H 0.282832  0.866396  0.268961 1 1 1
H 0.783898  0.064935  0.967513 1 1 1
H 0.862360  0.163070  0.880648 1 1 1
H 0.784739  0.065102  0.792267 1 1 1
H 0.102135  0.012488  0.736996 1 1 1
H 0.975743  0.040437  0.656716 1 1 1
H 0.033901  0.135873  0.769976 1 1 1
H 0.460246  0.569210  0.474536 1 1 1
H 0.376922  0.663380  0.383492 1 1 1
H 0.454939  0.565736  0.299292 1 1 1
H 0.137616  0.503497  0.240741 1 1 1
H 0.261185  0.533161  0.161565 1 1 1
H 0.203329  0.629313  0.271019 1 1 1
H 0.154601  0.446322  0.410198 1 1 1
H 0.116807  0.349848  0.285103 1 1 1
H 0.024108  0.451648  0.332688 1 1 1
H 0.110860  0.501296  0.957551 1 1 1
H 0.999666  0.477748  0.062214 1 1 1
H 0.103326  0.377981  0.047043 1 1 1
H 0.533378  0.940280  0.465955 1 1 1
H 0.610585  0.841331  0.378771 1 1 1
H 0.534694  0.940810  0.290727 1 1 1
H 0.853023  0.988875  0.237054 1 1 1
H 0.726432  0.963153  0.156101 1 1 1
H 0.782832  0.866396  0.268961 1 1 1
H 0.852313  0.055745  0.409773 1 1 1
H 0.884814  0.154659  0.287208 1 1 1
H 0.980722  0.053937  0.333795 1 1 1
H 0.884325  0.008009  0.956497 1 1 1
H 0.998032  0.032128  0.063068 1 1 1
H 0.892113  0.130156  0.048713 1 1 1
H 0.913466  0.640600  0.393497 1 1 1
H 0.954567  0.544889  0.518001 1 1 1
H 0.984266  0.520982  0.350096 1 1 1
H 0.772433  0.297758  0.474290 1 1 1
H 0.902385  0.317683  0.406171 1 1 1
H 0.873638  0.369411  0.566053 1 1 1
H 0.211428  0.435386  0.977183 1 1 1
H 0.129744  0.339538  0.886594 1 1 1
H 0.206523  0.437888  0.801908 1 1 1
H 0.888439  0.495152  0.741682 1 1 1
H 0.012650  0.466905  0.663212 1 1 1
H 0.955943  0.370474  0.773212 1 1 1
N 0.308437  0.851253  0.704828 0 0 0
N 0.060729  0.148857  0.206052 0 0 0
N 0.186542  0.650310  0.705838 0 0 0
N 0.438810  0.350928  0.208041 0 0 0
N 0.808437  0.851253  0.704828 0 0 0
N 0.560729  0.148857  0.206052 0 0 0
N 0.686543  0.650310  0.705838 0 0 0
N 0.938810  0.350928  0.208041 0 0 0
Ni 0.247002  0.751486  0.836326 0 0 0
Ni 0.499972  0.247999  0.339178 0 0 0
Ni 0.747002  0.751486  0.836326 0 0 0
Ni 0.999972  0.247999  0.339178 0 0 0
O 0.122778  0.347689  0.382873 0 0 0
O 0.371208  0.650977  0.881292 0 0 0
O 0.377630  0.147507  0.377178 0 0 0
O 0.125098  0.852352  0.876261 0 0 0
O 0.473069  0.356160  0.482994 0 0 0
O 0.221137  0.641415  0.979877 0 0 0
O 0.028840  0.135158  0.481078 0 0 0
O 0.276686  0.862758  0.979399 0 0 0
O 0.622779  0.347689  0.382873 0 0 0
O 0.871208  0.650977  0.881292 0 0 0
O 0.877630  0.147507  0.377178 0 0 0
O 0.625098  0.852352  0.876261 0 0 0
O 0.973069  0.356160  0.482994 0 0 0
O 0.721137  0.641415  0.979877 0 0 0
O 0.528840  0.135158  0.481078 0 0 0
O 0.776686  0.862758  0.979399 0 0 0
P 0.200347  0.019360  0.383310 1 1 1
P 0.949415  0.983698  0.883681 1 1 1
P 0.294827  0.481854  0.390634 1 1 1
P 0.161001  0.527694  0.190713 1 1 1
P 0.700347  0.019360  0.383310 1 1 1
P 0.841231  0.977389  0.188468 1 1 1
P 0.794524  0.482317  0.390108 1 1 1
P 0.044934  0.519869  0.891972 1 1 1
