&CONTROL
   calculation = 'relax',
   prefix = 'NiPyC2_relax_sc211_meta_functionalized_CH2-CH2-CH3_lammps_vdw-df2_relax',
   pseudo_dir = './pseudo/',
   outdir = '/nfs/hpc/share/gantzlen'
   wf_collect = .FALSE.,
   nstep = 200,
/
&SYSTEM
   ibrav = 0,
   nat = 180,
   ntyp = 5.000000,
   tot_charge = 0.000000,
   ecutwfc = 100.000000,
   input_dft = 'vdw-df2',
   vdw_corr = 'grimme-d2',
   occupations = 'smearing',
   degauss = 0.200000,
   smearing = 'mv',
   nspin = 2 ,
   starting_magnetization(4) = 0.250000,
   tot_magnetization = 8.000000
/
&ELECTRONS
    electron_maxstep = 90.000000,
    scf_must_converge = .TRUE.,
    conv_thr = 1.D-6,
    mixing_mode = 'local-TF',
    diagonalization = 'david',
/
&IONS
   ion_dynamics = 'bfgs',
/
&CELL
   cell_dynamics = 'bfgs'
   cell_dofree = 'xyz'
/
ATOMIC_SPECIES
C    12.010700    C.pbesol-nc.UPF
H    1.007940    H.pbesol-n-nc.UPF
N    14.006700    N.pbesol-nc.UPF
Ni    58.693400    Ni.pbesol-n-nc.UPF
O    15.999400    O.pbesol-nc.UPF
K_POINTS {gamma}
CELL_PARAMETERS {angstrom}
     12.505600   0.000000   0.000000
     0.000000   12.523400   0.000000
     -0.227594   0.000000   10.274279
ATOMIC_POSITIONS {crystal}
C 0.274635  0.995225  0.547694
C 0.020917  0.001269  0.047334
C 0.389571  0.019677  0.534991
C 0.130558  0.980341  0.031114
C 0.456428  0.944041  0.598440
C 0.200653  0.038118  0.110354
C 0.198835  0.554353  0.489797
C 0.497299  0.503751  0.073078
C 0.236688  0.637980  0.577830
C 0.532932  0.445283  0.184830
C 0.245835  0.943043  0.663195
C 0.985852  0.096677  0.112325
C 0.410942  0.857978  0.673214
C 0.164479  0.133358  0.178895
C 0.080844  0.623383  0.698681
C 0.361758  0.414471  0.248567
C 0.040624  0.535606  0.617380
C 0.331271  0.514061  0.184809
C 0.101616  0.498129  0.511482
C 0.390550  0.553086  0.077933
C 0.442290  0.127297  0.468543
C 0.176445  0.885910  0.945396
C 0.070742  0.384582  0.445185
C 0.331727  0.632264  0.967033
C 0.798773  0.954206  0.489585
C 0.568599  0.081794  0.010223
C 0.877905  0.031618  0.523892
C 0.654521  0.013347  0.044598
C 0.913324  0.027044  0.654527
C 0.705814  0.033690  0.164829
C 0.710496  0.563305  0.521929
C 0.975283  0.524193  0.076473
C 0.750067  0.644714  0.610206
C 0.010882  0.448263  0.169724
C 0.755695  0.884153  0.588040
C 0.543337  0.173000  0.094479
C 0.896089  0.932327  0.729531
C 0.663562  0.109547  0.254941
C 0.593302  0.631907  0.733123
C 0.838627  0.394713  0.206638
C 0.554673  0.544290  0.651463
C 0.802754  0.499430  0.158285
C 0.619115  0.503343  0.552257
C 0.867163  0.558040  0.073773
C 0.932830  0.111112  0.423530
C 0.696091  0.921699  0.952853
C 0.586560  0.394441  0.483511
C 0.819835  0.650594  0.979913
C 0.207591  0.953926  0.431835
C 0.108987  0.883666  0.459525
C 0.047904  0.850943  0.335811
C 0.305215  0.981371  0.137385
C 0.384155  0.013272  0.231350
C 0.468773  0.926194  0.259922
C 0.941451  0.468858  0.645902
C 0.857599  0.460433  0.750434
C 0.879198  0.369685  0.846250
C 0.528149  0.448960  0.953993
C 0.641475  0.404896  0.941873
C 0.645154  0.307032  0.853671
C 0.929200  0.127935  0.725852
C 0.038081  0.130716  0.791026
C 0.122506  0.173042  0.704252
C 0.499699  0.049163  0.894887
C 0.398857  0.113625  0.863251
C 0.417828  0.191054  0.753869
C 0.447322  0.488123  0.664268
C 0.349573  0.471305  0.744964
C 0.273366  0.389908  0.683665
C 0.042255  0.543108  0.966466
C 0.142358  0.472813  0.957583
C 0.142131  0.351490  0.961661
H 0.251639  0.525851  0.418301
H 0.311977  0.676516  0.558643
H 0.093143  0.449627  0.199530
H 0.166213  0.953024  0.695834
H 0.484180  0.230146  0.063817
H 0.463622  0.799096  0.713899
H 0.221501  0.178814  0.236321
H 0.025438  0.669388  0.753212
H 0.307532  0.376465  0.313379
H 0.259304  0.555133  0.212378
H 0.771186  0.945710  0.391055
H 0.963612  0.942268  0.019092
H 0.542015  0.951770  0.592975
H 0.778050  0.990522  0.189934
H 0.755298  0.543560  0.436519
H 0.828226  0.678592  0.594342
H 0.614607  0.435125  0.203723
H 0.683760  0.839732  0.565625
H 0.902207  0.117287  0.107837
H 0.944066  0.917882  0.814681
H 0.698364  0.114531  0.351168
H 0.547567  0.659998  0.811767
H 0.782444  0.341118  0.248590
H 0.736207  0.539671  0.200571
H 0.258397  0.898159  0.377569
H 0.178591  0.023071  0.377057
H 0.054668  0.926266  0.523237
H 0.133938  0.809924  0.510335
H 0.007734  0.921379  0.292041
H 0.985541  0.791521  0.360215
H 0.102593  0.814475  0.264613
H 0.350205  0.987216  0.048755
H 0.284995  0.897759  0.165199
H 0.339223  0.032226  0.310033
H 0.411494  0.087365  0.198983
H 0.431857  0.856229  0.307799
H 0.532196  0.956210  0.326894
H 0.505135  0.897759  0.168806
H 0.977642  0.389197  0.655131
H 0.893516  0.476218  0.555188
H 0.780744  0.439338  0.702981
H 0.843106  0.534853  0.795502
H 0.846478  0.298661  0.801931
H 0.846149  0.381066  0.942482
H 0.962919  0.353395  0.859353
H 0.474017  0.379895  0.948472
H 0.515564  0.507487  0.882947
H 0.692104  0.470002  0.905945
H 0.674446  0.374434  0.033983
H 0.648669  0.327019  0.749054
H 0.708030  0.250357  0.885867
H 0.577086  0.258039  0.870435
H 0.867521  0.129883  0.802191
H 0.917462  0.197786  0.660461
H 0.063890  0.050377  0.817372
H 0.033535  0.178164  0.880596
H 0.101786  0.253084  0.666855
H 0.133688  0.120147  0.622190
H 0.196493  0.171981  0.763298
H 0.552579  0.044544  0.809737
H 0.474208  0.965417  0.910657
H 0.335424  0.057742  0.832677
H 0.364222  0.154813  0.947789
H 0.353629  0.186313  0.679420
H 0.420693  0.270248  0.796746
H 0.494714  0.180177  0.705587
H 0.479102  0.408273  0.688544
H 0.411122  0.502150  0.565938
H 0.313253  0.543714  0.753393
H 0.356237  0.447531  0.845289
H 0.291945  0.364161  0.583275
H 0.191673  0.415736  0.691091
H 0.269428  0.322261  0.747354
H 0.056594  0.629582  0.968357
H 0.998312  0.529857  0.880467
H 0.190039  0.493883  0.038406
H 0.181194  0.497988  0.870796
H 0.080568  0.314903  0.021413
H 0.221540  0.321050  0.995408
H 0.128788  0.324505  0.863170
N 0.303339  0.856676  0.703310
N 0.056168  0.160053  0.183219
N 0.187144  0.656683  0.695069
N 0.464950  0.377187  0.242399
N 0.808286  0.870323  0.707100
N 0.577725  0.173734  0.223476
N 0.693885  0.674349  0.719276
N 0.945670  0.366679  0.205958
Ni 0.249384  0.757643  0.836726
Ni 0.518844  0.266477  0.365885
Ni 0.753553  0.778812  0.851025
Ni 0.002334  0.253859  0.326637
O 0.125911  0.331120  0.352817
O 0.376345  0.682682  0.863154
O 0.395147  0.191502  0.375788
O 0.123508  0.831204  0.851431
O 0.487248  0.351293  0.489090
O 0.227452  0.664904  0.968487
O 0.033958  0.149636  0.440112
O 0.279388  0.850592  0.952922
O 0.642453  0.341837  0.392715
O 0.871402  0.697790  0.877921
O 0.880052  0.175357  0.336039
O 0.636945  0.864007  0.862507
O 0.971963  0.339368  0.452467
O 0.718819  0.690235  0.984283
O 0.546646  0.159958  0.484498
O 0.793086  0.877182  0.968051
