&CONTROL
   calculation = 'relax',
   prefix = 'NiPyC2_relax_sc211_ortho_functionalized_O-CH3_pbesol_relax',
   pseudo_dir = './pseudo/',
   outdir = '/nfs/hpc/share/gantzlen'
   wf_collect = .FALSE.,
   nstep = 200,
/
&SYSTEM
   ibrav = 0,
   nat = 140,
   ntyp = 5.000000,
   tot_charge = 0.000000,
   ecutwfc = 100.000000,
   
   vdw_corr = 'grimme-d2',
   occupations = 'smearing',
   degauss = 0.200000,
   smearing = 'mv',
   nspin = 2 ,
   starting_magnetization(4) = 0.250000,
   tot_magnetization = 8.000000
/
&ELECTRONS
    electron_maxstep = 90.000000,
    scf_must_converge = .TRUE.,
    conv_thr = 1.D-6,
    mixing_mode = 'local-TF',
    diagonalization = 'david',
/
&IONS
   ion_dynamics = 'bfgs',
/
&CELL
   cell_dynamics = 'bfgs'
   cell_dofree = 'xyz'
/
ATOMIC_SPECIES
C    12.010700    C.pbesol-nc.UPF
H    1.007940    H.pbesol-n-nc.UPF
N    14.006700    N.pbesol-nc.UPF
Ni    58.693400    Ni.pbesol-n-nc.UPF
O    15.999400    O.pbesol-nc.UPF
K_POINTS {gamma}
CELL_PARAMETERS {angstrom}
     12.505600   0.000000   0.000000
     0.000000   12.523400   0.000000
     -0.227594   0.000000   10.274279
ATOMIC_POSITIONS {crystal}
C 0.288212  0.970050  0.521984
C 0.038379  0.031106  0.022308
C 0.390634  0.011770  0.546492
C 0.140244  0.987744  0.046146
C 0.451915  0.970202  0.650371
C 0.202520  0.028353  0.149893
C 0.208181  0.529704  0.526384
C 0.458545  0.471409  0.027904
C 0.245137  0.613331  0.606435
C 0.496819  0.388677  0.108617
C 0.249476  0.889206  0.603203
C 0.001069  0.112232  0.104247
C 0.407977  0.889383  0.727552
C 0.159935  0.109547  0.227812
C 0.088862  0.608983  0.727352
C 0.340890  0.391633  0.229394
C 0.046925  0.525079  0.651312
C 0.297658  0.474711  0.152754
C 0.108164  0.484270  0.550116
C 0.357832  0.515656  0.050638
C 0.433310  0.099319  0.466621
C 0.181517  0.899720  0.965672
C 0.067378  0.394474  0.470676
C 0.316043  0.604172  0.969107
C 0.788212  0.970050  0.521984
C 0.538379  0.031106  0.022308
C 0.890634  0.011770  0.546492
C 0.640244  0.987744  0.046146
C 0.951915  0.970202  0.650371
C 0.702520  0.028353  0.149893
C 0.708182  0.529704  0.526384
C 0.958546  0.471409  0.027904
C 0.745137  0.613331  0.606435
C 0.996819  0.388677  0.108617
C 0.749476  0.889206  0.603203
C 0.501069  0.112232  0.104247
C 0.907977  0.889383  0.727552
C 0.659934  0.109547  0.227812
C 0.588862  0.608983  0.727352
C 0.840890  0.391633  0.229394
C 0.546925  0.525079  0.651312
C 0.797658  0.474711  0.152754
C 0.608164  0.484270  0.550116
C 0.857832  0.515656  0.050638
C 0.933310  0.099319  0.466621
C 0.681517  0.899720  0.965672
C 0.567377  0.394474  0.470676
C 0.816043  0.604172  0.969107
C 0.097491  0.770332  0.644414
C 0.196070  0.227464  0.415135
C 0.054133  0.730061  0.910001
C 0.646644  0.265627  0.151613
C 0.597491  0.770333  0.644415
C 0.696069  0.227463  0.415136
C 0.554134  0.730061  0.910001
C 0.807779  0.271517  0.413599
H 0.237124  0.999575  0.443113
H 0.486538  0.002692  0.943499
H 0.032063  0.998805  0.673520
H 0.282340  0.998665  0.172602
H 0.258700  0.500895  0.449282
H 0.008641  0.500397  0.950548
H 0.322641  0.650506  0.592635
H 0.074968  0.352851  0.095028
H 0.422322  0.147732  0.089886
H 0.453370  0.855173  0.808761
H 0.296378  0.357526  0.309051
H 0.468672  0.493231  0.673502
H 0.218952  0.505201  0.175264
H 0.737124  0.999575  0.443113
H 0.986538  0.002692  0.943499
H 0.532062  0.998805  0.673520
H 0.782340  0.998665  0.172602
H 0.758700  0.500895  0.449282
H 0.508641  0.500397  0.950548
H 0.822641  0.650506  0.592635
H 0.922322  0.147732  0.089886
H 0.953370  0.855173  0.808761
H 0.968672  0.493231  0.673502
H 0.718952  0.505201  0.175264
H 0.017361  0.755059  0.599827
H 0.087000  0.796050  0.746798
H 0.144584  0.695194  0.641293
H 0.263221  0.241727  0.485310
H 0.124926  0.202441  0.470351
H 0.179197  0.302967  0.361776
H 0.988280  0.744092  0.978503
H 0.067691  0.804760  0.854446
H 0.127261  0.708200  0.967300
H 0.725567  0.248954  0.108818
H 0.659670  0.289816  0.254754
H 0.597656  0.191706  0.145898
H 0.517360  0.755061  0.599829
H 0.644583  0.695195  0.641295
H 0.586999  0.796052  0.746799
H 0.763220  0.241725  0.485311
H 0.624924  0.202440  0.470352
H 0.679196  0.302966  0.361777
H 0.488280  0.744093  0.978503
H 0.567692  0.804761  0.854445
H 0.627261  0.708201  0.967300
H 0.742288  0.257367  0.482576
H 0.821852  0.196558  0.358765
H 0.880878  0.294440  0.470310
N 0.308437  0.851253  0.704828
N 0.060729  0.148857  0.206052
N 0.186542  0.650310  0.705838
N 0.438810  0.350928  0.208041
N 0.808437  0.851253  0.704828
N 0.560729  0.148857  0.206052
N 0.686543  0.650310  0.705838
N 0.938810  0.350928  0.208041
Ni 0.247002  0.751486  0.836326
Ni 0.499972  0.247999  0.339178
Ni 0.747002  0.751486  0.836326
Ni 0.999972  0.247999  0.339178
O 0.122778  0.347689  0.382873
O 0.371208  0.650977  0.881292
O 0.377630  0.147507  0.377178
O 0.125098  0.852352  0.876261
O 0.473069  0.356160  0.482994
O 0.221137  0.641415  0.979877
O 0.028840  0.135158  0.481078
O 0.276686  0.862758  0.979399
O 0.622779  0.347689  0.382873
O 0.871208  0.650977  0.881292
O 0.877630  0.147507  0.377178
O 0.625098  0.852352  0.876261
O 0.973069  0.356160  0.482994
O 0.721137  0.641415  0.979877
O 0.528840  0.135158  0.481078
O 0.776686  0.862758  0.979399
O 0.147500  0.849491  0.574831
O 0.224963  0.148201  0.329471
O 0.025347  0.648154  0.826468
O 0.597282  0.346831  0.082173
O 0.647499  0.849492  0.574832
O 0.724962  0.148200  0.329471
O 0.525347  0.648155  0.826467
O 0.777960  0.352572  0.329337
