&CONTROL
   calculation = 'relax',
   prefix = 'NiPyC2_relax_sc211_ortho_functionalized_CH2-NH2_pbesol_relax_frozen_parent_atoms',
   pseudo_dir = './pseudo/',
   outdir = '/nfs/hpc/share/gantzlen'
   wf_collect = .FALSE.,
   nstep = 200,
/
&SYSTEM
   ibrav = 0,
   nat = 148,
   ntyp = 5.000000,
   tot_charge = 0.000000,
   ecutwfc = 100.000000,
   
   vdw_corr = 'grimme-d2',
   occupations = 'smearing',
   degauss = 0.200000,
   smearing = 'mv',
   nspin = 2 ,
   starting_magnetization(4) = 0.250000,
   tot_magnetization = 8.000000
/
&ELECTRONS
    electron_maxstep = 40.000000,
    scf_must_converge = .FALSE.,
    conv_thr = 5.D-6,
    mixing_mode = 'local-TF',
    diagonalization = 'david',
/
&IONS
   ion_dynamics = 'bfgs',
/
&CELL
   cell_dynamics = 'bfgs'
   cell_dofree = 'xyz'
/
ATOMIC_SPECIES
C    12.010700    C.pbesol-nc.UPF
H    1.007940    H.pbesol-n-nc.UPF
N    14.006700    N.pbesol-nc.UPF
Ni    58.693400    Ni.pbesol-n-nc.UPF
O    15.999400    O.pbesol-nc.UPF
K_POINTS {gamma}
CELL_PARAMETERS {angstrom}
     12.505600   0.000000   0.000000
     0.000000   12.523400   0.000000
     -0.227594   0.000000   10.274279
ATOMIC_POSITIONS {crystal}
C 0.288212  0.970050  0.521984 0 0 0
C 0.038379  0.031106  0.022308 0 0 0
C 0.390634  0.011770  0.546492 0 0 0
C 0.140244  0.987744  0.046146 0 0 0
C 0.451915  0.970202  0.650371 0 0 0
C 0.202520  0.028353  0.149893 0 0 0
C 0.208181  0.529704  0.526384 0 0 0
C 0.458545  0.471409  0.027904 0 0 0
C 0.245137  0.613331  0.606435 0 0 0
C 0.496819  0.388677  0.108617 0 0 0
C 0.249476  0.889206  0.603203 0 0 0
C 0.001069  0.112232  0.104247 0 0 0
C 0.407977  0.889383  0.727552 0 0 0
C 0.159935  0.109547  0.227812 0 0 0
C 0.088862  0.608983  0.727352 0 0 0
C 0.340890  0.391633  0.229394 0 0 0
C 0.046925  0.525079  0.651312 0 0 0
C 0.297658  0.474711  0.152754 0 0 0
C 0.108164  0.484270  0.550116 0 0 0
C 0.357832  0.515656  0.050638 0 0 0
C 0.433310  0.099319  0.466621 0 0 0
C 0.181517  0.899720  0.965672 0 0 0
C 0.067378  0.394474  0.470676 0 0 0
C 0.316043  0.604172  0.969107 0 0 0
C 0.788212  0.970050  0.521984 0 0 0
C 0.538379  0.031106  0.022308 0 0 0
C 0.890634  0.011770  0.546492 0 0 0
C 0.640244  0.987744  0.046146 0 0 0
C 0.951915  0.970202  0.650371 0 0 0
C 0.702520  0.028353  0.149893 0 0 0
C 0.708182  0.529704  0.526384 0 0 0
C 0.958546  0.471409  0.027904 0 0 0
C 0.745137  0.613331  0.606435 0 0 0
C 0.996819  0.388677  0.108617 0 0 0
C 0.749476  0.889206  0.603203 0 0 0
C 0.501069  0.112232  0.104247 0 0 0
C 0.907977  0.889383  0.727552 0 0 0
C 0.659934  0.109547  0.227812 0 0 0
C 0.588862  0.608983  0.727352 0 0 0
C 0.840890  0.391633  0.229394 0 0 0
C 0.546925  0.525079  0.651312 0 0 0
C 0.797658  0.474711  0.152754 0 0 0
C 0.608164  0.484270  0.550116 0 0 0
C 0.857832  0.515656  0.050638 0 0 0
C 0.933310  0.099319  0.466621 0 0 0
C 0.681517  0.899720  0.965672 0 0 0
C 0.567377  0.394474  0.470676 0 0 0
C 0.816043  0.604172  0.969107 0 0 0
C 0.476793  0.842232  0.842831 1 1 1
C 0.229713  0.155171  0.343145 1 1 1
C 0.020474  0.655719  0.839333 1 1 1
C 0.608875  0.339041  0.082511 1 1 1
C 0.976793  0.842232  0.842831 1 1 1
C 0.388028  0.161348  0.076584 1 1 1
C 0.856165  0.664917  0.579817 1 1 1
C 0.108875  0.339040  0.082511 1 1 1
H 0.237124  0.999575  0.443113 0 0 0
H 0.486538  0.002692  0.943499 0 0 0
H 0.032063  0.998805  0.673520 0 0 0
H 0.282340  0.998665  0.172602 0 0 0
H 0.258700  0.500895  0.449282 0 0 0
H 0.008641  0.500397  0.950548 0 0 0
H 0.322641  0.650506  0.592635 0 0 0
H 0.170154  0.855123  0.588560 0 0 0
H 0.296378  0.357526  0.309051 0 0 0
H 0.468672  0.493231  0.673502 0 0 0
H 0.218952  0.505201  0.175264 0 0 0
H 0.737124  0.999575  0.443113 0 0 0
H 0.986538  0.002692  0.943499 0 0 0
H 0.532062  0.998805  0.673520 0 0 0
H 0.782340  0.998665  0.172602 0 0 0
H 0.758700  0.500895  0.449282 0 0 0
H 0.508641  0.500397  0.950548 0 0 0
H 0.670154  0.855123  0.588560 0 0 0
H 0.922322  0.147732  0.089886 0 0 0
H 0.706240  0.143103  0.308797 0 0 0
H 0.543729  0.642944  0.806608 0 0 0
H 0.796378  0.357526  0.309051 0 0 0
H 0.968672  0.493231  0.673502 0 0 0
H 0.718952  0.505201  0.175264 0 0 0
H 0.499999  0.907337  0.911462 1 1 1
H 0.549968  0.805538  0.802708 1 1 1
H 0.357908  0.796083  0.965803 1 1 1
H 0.473312  0.728602  0.986189 1 1 1
H 0.305605  0.187918  0.305200 1 1 1
H 0.248081  0.089265  0.412540 1 1 1
H 0.168686  0.307218  0.354092 1 1 1
H 0.224994  0.262243  0.493725 1 1 1
H 0.001039  0.591159  0.909291 1 1 1
H 0.945190  0.688763  0.796234 1 1 1
H 0.139759  0.708846  0.963999 1 1 1
H 0.022181  0.772231  0.979404 1 1 1
H 0.670985  0.402555  0.088201 1 1 1
H 0.607242  0.303534  0.983368 1 1 1
H 0.651943  0.289632  0.267059 1 1 1
H 0.711526  0.222037  0.147286 1 1 1
H 0.999999  0.907337  0.911462 1 1 1
H 0.049968  0.805538  0.802708 1 1 1
H 0.857908  0.796083  0.965803 1 1 1
H 0.973312  0.728602  0.986189 1 1 1
H 0.326546  0.097239  0.079195 1 1 1
H 0.387382  0.198498  0.978349 1 1 1
H 0.348236  0.207339  0.261299 1 1 1
H 0.285681  0.276400  0.141722 1 1 1
H 0.919436  0.602563  0.585680 1 1 1
H 0.853709  0.700064  0.480487 1 1 1
H 0.898635  0.715704  0.763996 1 1 1
H 0.956758  0.783980  0.643702 1 1 1
H 0.170985  0.402553  0.088202 1 1 1
H 0.107242  0.303533  0.983368 1 1 1
H 0.151942  0.289631  0.267059 1 1 1
H 0.211525  0.222036  0.147286 1 1 1
N 0.308437  0.851253  0.704828 0 0 0
N 0.060729  0.148857  0.206052 0 0 0
N 0.186542  0.650310  0.705838 0 0 0
N 0.438810  0.350928  0.208041 0 0 0
N 0.808437  0.851253  0.704828 0 0 0
N 0.560729  0.148857  0.206052 0 0 0
N 0.686543  0.650310  0.705838 0 0 0
N 0.938810  0.350928  0.208041 0 0 0
N 0.420501  0.760220  0.915907 1 1 1
N 0.176144  0.240135  0.414330 1 1 1
N 0.074906  0.741271  0.911427 1 1 1
N 0.638816  0.255157  0.175330 1 1 1
N 0.920501  0.760220  0.915907 1 1 1
N 0.359243  0.243430  0.170734 1 1 1
N 0.884720  0.749634  0.672116 1 1 1
N 0.138815  0.255156  0.175330 1 1 1
Ni 0.247002  0.751486  0.836326 0 0 0
Ni 0.499972  0.247999  0.339178 0 0 0
Ni 0.747002  0.751486  0.836326 0 0 0
Ni 0.999972  0.247999  0.339178 0 0 0
O 0.122778  0.347689  0.382873 0 0 0
O 0.371208  0.650977  0.881292 0 0 0
O 0.377630  0.147507  0.377178 0 0 0
O 0.125098  0.852352  0.876261 0 0 0
O 0.473069  0.356160  0.482994 0 0 0
O 0.221137  0.641415  0.979877 0 0 0
O 0.028840  0.135158  0.481078 0 0 0
O 0.276686  0.862758  0.979399 0 0 0
O 0.622779  0.347689  0.382873 0 0 0
O 0.871208  0.650977  0.881292 0 0 0
O 0.877630  0.147507  0.377178 0 0 0
O 0.625098  0.852352  0.876261 0 0 0
O 0.973069  0.356160  0.482994 0 0 0
O 0.721137  0.641415  0.979877 0 0 0
O 0.528840  0.135158  0.481078 0 0 0
O 0.776686  0.862758  0.979399 0 0 0
