&CONTROL
   calculation = 'relax',
   prefix = 'NiPyC2_relax_sc211_ortho_functionalized_S-CH3_pbesol_relax',
   pseudo_dir = './pseudo/',
   outdir = '/nfs/hpc/share/gantzlen'
   wf_collect = .FALSE.,
   nstep = 200,
/
&SYSTEM
   ibrav = 0,
   nat = 140,
   ntyp = 6.000000,
   tot_charge = 0.000000,
   ecutwfc = 100.000000,
   
   vdw_corr = 'grimme-d2',
   occupations = 'smearing',
   degauss = 0.200000,
   smearing = 'mv',
   nspin = 2 ,
   starting_magnetization(4) = 0.250000,
   tot_magnetization = 8.000000
/
&ELECTRONS
    electron_maxstep = 90.000000,
    scf_must_converge = .TRUE.,
    conv_thr = 1.D-6,
    mixing_mode = 'local-TF',
    diagonalization = 'david',
/
&IONS
   ion_dynamics = 'bfgs',
/
&CELL
   cell_dynamics = 'bfgs'
   cell_dofree = 'xyz'
/
ATOMIC_SPECIES
C    12.010700    C.pbesol-nc.UPF
H    1.007940    H.pbesol-n-nc.UPF
N    14.006700    N.pbesol-nc.UPF
Ni    58.693400    Ni.pbesol-n-nc.UPF
O    15.999400    O.pbesol-nc.UPF
S    32.065000    S.pbesol-n-nc.UPF
K_POINTS {gamma}
CELL_PARAMETERS {angstrom}
     12.505600   0.000000   0.000000
     0.000000   12.523400   0.000000
     -0.227594   0.000000   10.274279
ATOMIC_POSITIONS {crystal}
C 0.288212  0.970050  0.521984
C 0.038379  0.031106  0.022308
C 0.390634  0.011770  0.546492
C 0.140244  0.987744  0.046146
C 0.451915  0.970202  0.650371
C 0.202520  0.028353  0.149893
C 0.208181  0.529704  0.526384
C 0.458545  0.471409  0.027904
C 0.245137  0.613331  0.606435
C 0.496819  0.388677  0.108617
C 0.249476  0.889206  0.603203
C 0.001069  0.112232  0.104247
C 0.407977  0.889383  0.727552
C 0.159935  0.109547  0.227812
C 0.088862  0.608983  0.727352
C 0.340890  0.391633  0.229394
C 0.046925  0.525079  0.651312
C 0.297658  0.474711  0.152754
C 0.108164  0.484270  0.550116
C 0.357832  0.515656  0.050638
C 0.433310  0.099319  0.466621
C 0.181517  0.899720  0.965672
C 0.067378  0.394474  0.470676
C 0.316043  0.604172  0.969107
C 0.788212  0.970050  0.521984
C 0.538379  0.031106  0.022308
C 0.890634  0.011770  0.546492
C 0.640244  0.987744  0.046146
C 0.951915  0.970202  0.650371
C 0.702520  0.028353  0.149893
C 0.708182  0.529704  0.526384
C 0.958546  0.471409  0.027904
C 0.745137  0.613331  0.606435
C 0.996819  0.388677  0.108617
C 0.749476  0.889206  0.603203
C 0.501069  0.112232  0.104247
C 0.907977  0.889383  0.727552
C 0.659934  0.109547  0.227812
C 0.588862  0.608983  0.727352
C 0.840890  0.391633  0.229394
C 0.546925  0.525079  0.651312
C 0.797658  0.474711  0.152754
C 0.608164  0.484270  0.550116
C 0.857832  0.515656  0.050638
C 0.933310  0.099319  0.466621
C 0.681517  0.899720  0.965672
C 0.567377  0.394474  0.470676
C 0.816043  0.604172  0.969107
C 0.996062  0.772360  0.552827
C 0.304716  0.220290  0.492763
C 0.492305  0.740074  0.559238
C 0.201376  0.279410  0.489966
C 0.049956  0.776350  0.993278
C 0.806660  0.223891  0.488874
C 0.994598  0.736613  0.563150
C 0.246413  0.266306  0.062681
H 0.237124  0.999575  0.443113
H 0.486538  0.002692  0.943499
H 0.032063  0.998805  0.673520
H 0.282340  0.998665  0.172602
H 0.258700  0.500895  0.449282
H 0.008641  0.500397  0.950548
H 0.422322  0.147732  0.089886
H 0.453370  0.855173  0.808761
H 0.043729  0.642944  0.806608
H 0.468672  0.493231  0.673502
H 0.218952  0.505201  0.175264
H 0.737124  0.999575  0.443113
H 0.986538  0.002692  0.943499
H 0.532062  0.998805  0.673520
H 0.782340  0.998665  0.172602
H 0.758700  0.500895  0.449282
H 0.508641  0.500397  0.950548
H 0.574968  0.352851  0.095028
H 0.670154  0.855123  0.588560
H 0.922322  0.147732  0.089886
H 0.543729  0.642944  0.806608
H 0.796378  0.357526  0.309051
H 0.968672  0.493231  0.673502
H 0.718952  0.505201  0.175264
H 0.938793  0.824210  0.498351
H 0.993772  0.691929  0.507477
H 0.971066  0.769906  0.655756
H 0.392647  0.212137  0.484827
H 0.282437  0.193676  0.591556
H 0.284026  0.305428  0.475790
H 0.550662  0.689856  0.507303
H 0.490236  0.819793  0.512047
H 0.519248  0.745231  0.662693
H 0.113372  0.289226  0.481062
H 0.226827  0.304114  0.589650
H 0.220086  0.194195  0.471350
H 0.138032  0.783509  0.986117
H 0.027418  0.802990  0.091967
H 0.028376  0.691494  0.975807
H 0.870520  0.171152  0.529094
H 0.841970  0.303951  0.472453
H 0.741642  0.226919  0.560584
H 0.024574  0.729244  0.462776
H 0.060430  0.713816  0.631852
H 0.969274  0.820681  0.577399
H 0.303936  0.317408  0.010629
H 0.245889  0.186410  0.015913
H 0.273263  0.261974  0.166226
N 0.308437  0.851253  0.704828
N 0.060729  0.148857  0.206052
N 0.186542  0.650310  0.705838
N 0.438810  0.350928  0.208041
N 0.808437  0.851253  0.704828
N 0.560729  0.148857  0.206052
N 0.686543  0.650310  0.705838
N 0.938810  0.350928  0.208041
Ni 0.247002  0.751486  0.836326
Ni 0.499972  0.247999  0.339178
Ni 0.747002  0.751486  0.836326
Ni 0.999972  0.247999  0.339178
O 0.122778  0.347689  0.382873
O 0.371208  0.650977  0.881292
O 0.377630  0.147507  0.377178
O 0.125098  0.852352  0.876261
O 0.473069  0.356160  0.482994
O 0.221137  0.641415  0.979877
O 0.028840  0.135158  0.481078
O 0.276686  0.862758  0.979399
O 0.622779  0.347689  0.382873
O 0.871208  0.650977  0.881292
O 0.877630  0.147507  0.377178
O 0.625098  0.852352  0.876261
O 0.973069  0.356160  0.482994
O 0.721137  0.641415  0.979877
O 0.528840  0.135158  0.481078
O 0.776686  0.862758  0.979399
S 0.117007  0.830283  0.575948
S 0.237134  0.166711  0.364437
S 0.374389  0.677422  0.580923
S 0.266412  0.333746  0.363727
S 0.983725  0.830997  0.864610
S 0.737376  0.167161  0.363952
S 0.874675  0.676990  0.581411
S 0.127324  0.326872  0.083729
