&CONTROL
   calculation = 'relax',
   prefix = 'NiPyC2_relax_sc211_meta_functionalized_CH2-CH2-CH3_pbesol_relax',
   pseudo_dir = './pseudo/',
   outdir = '/nfs/hpc/share/gantzlen'
   wf_collect = .FALSE.,
   nstep = 200,
/
&SYSTEM
   ibrav = 0,
   nat = 180,
   ntyp = 7.000000,
   tot_charge = 0.000000,
   ecutwfc = 100.000000,
   
   vdw_corr = 'grimme-d2',
   occupations = 'smearing',
   degauss = 0.200000,
   smearing = 'mv',
   nspin = 2 ,
   starting_magnetization(6) = 0.250000,
   tot_magnetization = 8.000000
/
&ELECTRONS
    electron_maxstep = 40.000000,
    scf_must_converge = .FALSE.,
    conv_thr = 5.D-6,
    mixing_mode = 'local-TF',
    diagonalization = 'david',
/
&IONS
   ion_dynamics = 'bfgs',
/
&CELL
   cell_dynamics = 'bfgs'
   cell_dofree = 'xyz'
/
ATOMIC_SPECIES
C    12.010700    C.pbesol-nc.UPF
H    1.007940    H.pbesol-n-nc.UPF
N    14.006700    N.pbesol-nc.UPF
Ni    58.693400    Ni.pbesol-n-nc.UPF
O    15.999400    O.pbesol-nc.UPF
K_POINTS {gamma}
CELL_PARAMETERS {angstrom}
     12.505600   0.000000   0.000000
     0.000000   12.523400   0.000000
     -0.227594   0.000000   10.274279
ATOMIC_POSITIONS {crystal}
C 0.288212  0.970050  0.521984 0 0 0
C 0.038379  0.031106  0.022308 0 0 0
C 0.390634  0.011770  0.546492 0 0 0
C 0.140244  0.987744  0.046146 0 0 0
C 0.451915  0.970202  0.650371 0 0 0
C 0.202520  0.028353  0.149893 0 0 0
C 0.208181  0.529704  0.526384 0 0 0
C 0.458545  0.471409  0.027904 0 0 0
C 0.245137  0.613331  0.606435 0 0 0
C 0.496819  0.388677  0.108617 0 0 0
C 0.249476  0.889206  0.603203 0 0 0
C 0.001069  0.112232  0.104247 0 0 0
C 0.407977  0.889383  0.727552 0 0 0
C 0.159935  0.109547  0.227812 0 0 0
C 0.088862  0.608983  0.727352 0 0 0
C 0.340890  0.391633  0.229394 0 0 0
C 0.046925  0.525079  0.651312 0 0 0
C 0.297658  0.474711  0.152754 0 0 0
C 0.108164  0.484270  0.550116 0 0 0
C 0.357832  0.515656  0.050638 0 0 0
C 0.433310  0.099319  0.466621 0 0 0
C 0.181517  0.899720  0.965672 0 0 0
C 0.067378  0.394474  0.470676 0 0 0
C 0.316043  0.604172  0.969107 0 0 0
C 0.788212  0.970050  0.521984 0 0 0
C 0.538379  0.031106  0.022308 0 0 0
C 0.890634  0.011770  0.546492 0 0 0
C 0.640244  0.987744  0.046146 0 0 0
C 0.951915  0.970202  0.650371 0 0 0
C 0.702520  0.028353  0.149893 0 0 0
C 0.708182  0.529704  0.526384 0 0 0
C 0.958546  0.471409  0.027904 0 0 0
C 0.745137  0.613331  0.606435 0 0 0
C 0.996819  0.388677  0.108617 0 0 0
C 0.749476  0.889206  0.603203 0 0 0
C 0.501069  0.112232  0.104247 0 0 0
C 0.907977  0.889383  0.727552 0 0 0
C 0.659934  0.109547  0.227812 0 0 0
C 0.588862  0.608983  0.727352 0 0 0
C 0.840890  0.391633  0.229394 0 0 0
C 0.546925  0.525079  0.651312 0 0 0
C 0.797658  0.474711  0.152754 0 0 0
C 0.608164  0.484270  0.550116 0 0 0
C 0.857832  0.515656  0.050638 0 0 0
C 0.933310  0.099319  0.466621 0 0 0
C 0.681517  0.899720  0.965672 0 0 0
C 0.567377  0.394474  0.470676 0 0 0
C 0.816043  0.604172  0.969107 0 0 0
C 0.565717  0.011535  0.680784 1 1 1
C 0.625765  0.960199  0.797117 1 1 1
C 0.737090  0.008585  0.815967 1 1 1
C 0.967138  0.991198  0.908029 1 1 1
C 0.856790  0.044251  0.890649 1 1 1
C 0.795083  0.997204  0.774320 1 1 1
C 0.935531  0.479536  0.679754 1 1 1
C 0.875421  0.530390  0.793119 1 1 1
C 0.766543  0.477716  0.810316 1 1 1
C 0.185893  0.519176  0.181719 1 1 1
C 0.126977  0.468333  0.296034 1 1 1
C 0.017619  0.519899  0.313628 1 1 1
C 0.717888  0.011498  0.407679 1 1 1
C 0.606786  0.960183  0.389525 1 1 1
C 0.546111  0.008624  0.273271 1 1 1
C 0.467138  0.991198  0.908029 1 1 1
C 0.356790  0.044251  0.890649 1 1 1
C 0.295083  0.997204  0.774320 1 1 1
C 0.777524  0.489375  0.414480 1 1 1
C 0.885972  0.544995  0.397189 1 1 1
C 0.945985  0.497233  0.283252 1 1 1
C 0.685893  0.519176  0.181719 1 1 1
C 0.626977  0.468333  0.296034 1 1 1
C 0.517619  0.519899  0.313628 1 1 1
H 0.237124  0.999575  0.443113 0 0 0
H 0.032063  0.998805  0.673520 0 0 0
H 0.282340  0.998665  0.172602 0 0 0
H 0.258700  0.500895  0.449282 0 0 0
H 0.008641  0.500397  0.950548 0 0 0
H 0.322641  0.650506  0.592635 0 0 0
H 0.074968  0.352851  0.095028 0 0 0
H 0.170154  0.855123  0.588560 0 0 0
H 0.422322  0.147732  0.089886 0 0 0
H 0.453370  0.855173  0.808761 0 0 0
H 0.206239  0.143103  0.308797 0 0 0
H 0.043729  0.642944  0.806608 0 0 0
H 0.296378  0.357526  0.309051 0 0 0
H 0.468672  0.493231  0.673502 0 0 0
H 0.782340  0.998665  0.172602 0 0 0
H 0.508641  0.500397  0.950548 0 0 0
H 0.822641  0.650506  0.592635 0 0 0
H 0.574968  0.352851  0.095028 0 0 0
H 0.670154  0.855123  0.588560 0 0 0
H 0.922322  0.147732  0.089886 0 0 0
H 0.953370  0.855173  0.808761 0 0 0
H 0.706240  0.143103  0.308797 0 0 0
H 0.543729  0.642944  0.806608 0 0 0
H 0.796378  0.357526  0.309051 0 0 0
H 0.560260  0.098591  0.700748 1 1 1
H 0.614606  0.998000  0.593257 1 1 1
H 0.634822  0.873013  0.780177 1 1 1
H 0.580508  0.973541  0.887598 1 1 1
H 0.785351  0.995448  0.727927 1 1 1
H 0.778512  0.970130  0.900388 1 1 1
H 0.731197  0.095678  0.835030 1 1 1
H 0.011160  0.004412  0.816612 1 1 1
H 0.953425  0.904285  0.922049 1 1 1
H 0.809055  0.031296  0.979269 1 1 1
H 0.866756  0.131360  0.873900 1 1 1
H 0.782214  0.910240  0.788443 1 1 1
H 0.715934  0.036883  0.764113 1 1 1
H 0.839745  0.010007  0.683386 1 1 1
H 0.945011  0.393166  0.702196 1 1 1
H 0.884549  0.489420  0.590568 1 1 1
H 0.862391  0.616792  0.773601 1 1 1
H 0.922817  0.520599  0.885157 1 1 1
H 0.716197  0.487220  0.720645 1 1 1
H 0.725024  0.515910  0.892609 1 1 1
H 0.776444  0.391311  0.831871 1 1 1
H 0.134558  0.508199  0.093022 1 1 1
H 0.194515  0.605776  0.203307 1 1 1
H 0.174741  0.479194  0.387615 1 1 1
H 0.114824  0.381679  0.277397 1 1 1
H 0.026655  0.606534  0.334328 1 1 1
H 0.976980  0.481736  0.396604 1 1 1
H 0.966915  0.509309  0.224436 1 1 1
H 0.705457  0.098550  0.422207 1 1 1
H 0.761956  0.997995  0.316357 1 1 1
H 0.615473  0.873004  0.372251 1 1 1
H 0.559012  0.973495  0.478035 1 1 1
H 0.590821  0.995518  0.182435 1 1 1
H 0.466390  0.970184  0.262499 1 1 1
H 0.534528  0.095714  0.287906 1 1 1
H 0.511160  0.004412  0.816612 1 1 1
H 0.453425  0.904285  0.922049 1 1 1
H 0.309055  0.031296  0.979269 1 1 1
H 0.366756  0.131360  0.873900 1 1 1
H 0.282214  0.910240  0.788443 1 1 1
H 0.215934  0.036883  0.764113 1 1 1
H 0.339745  0.010007  0.683386 1 1 1
H 0.730823  0.499511  0.321994 1 1 1
H 0.793951  0.403177  0.431350 1 1 1
H 0.936306  0.535161  0.486928 1 1 1
H 0.873217  0.631433  0.377642 1 1 1
H 0.961572  0.410964  0.300214 1 1 1
H 0.023784  0.538799  0.273059 1 1 1
H 0.898668  0.506951  0.191251 1 1 1
H 0.634558  0.508199  0.093022 1 1 1
H 0.694515  0.605776  0.203307 1 1 1
H 0.674741  0.479194  0.387615 1 1 1
H 0.614824  0.381679  0.277397 1 1 1
H 0.526655  0.606534  0.334328 1 1 1
H 0.476980  0.481736  0.396604 1 1 1
H 0.466915  0.509309  0.224436 1 1 1
N 0.308437  0.851253  0.704828 0 0 0
N 0.060729  0.148857  0.206052 0 0 0
N 0.186542  0.650310  0.705838 0 0 0
N 0.438810  0.350928  0.208041 0 0 0
N 0.808437  0.851253  0.704828 0 0 0
N 0.560729  0.148857  0.206052 0 0 0
N 0.686543  0.650310  0.705838 0 0 0
N 0.938810  0.350928  0.208041 0 0 0
Ni 0.247002  0.751486  0.836326 0 0 0
Ni 0.499972  0.247999  0.339178 0 0 0
Ni 0.747002  0.751486  0.836326 0 0 0
Ni 0.999972  0.247999  0.339178 0 0 0
O 0.122778  0.347689  0.382873 0 0 0
O 0.371208  0.650977  0.881292 0 0 0
O 0.377630  0.147507  0.377178 0 0 0
O 0.125098  0.852352  0.876261 0 0 0
O 0.473069  0.356160  0.482994 0 0 0
O 0.221137  0.641415  0.979877 0 0 0
O 0.028840  0.135158  0.481078 0 0 0
O 0.276686  0.862758  0.979399 0 0 0
O 0.622779  0.347689  0.382873 0 0 0
O 0.871208  0.650977  0.881292 0 0 0
O 0.877630  0.147507  0.377178 0 0 0
O 0.625098  0.852352  0.876261 0 0 0
O 0.973069  0.356160  0.482994 0 0 0
O 0.721137  0.641415  0.979877 0 0 0
O 0.528840  0.135158  0.481078 0 0 0
O 0.776686  0.862758  0.979399 0 0 0
