&CONTROL
   calculation = 'relax',
   prefix = 'NiPyC2_relax_sc211_meta_functionalized_O-CH2-CH3_lammps_pbesol_relax',
   pseudo_dir = './pseudo/',
   outdir = '/nfs/hpc/share/gantzlen'
   wf_collect = .FALSE.,
   nstep = 200,
/
&SYSTEM
   ibrav = 0,
   nat = 164,
   ntyp = 5.000000,
   tot_charge = 0.000000,
   ecutwfc = 100.000000,
   
   vdw_corr = 'grimme-d2',
   occupations = 'smearing',
   degauss = 0.200000,
   smearing = 'mv',
   nspin = 2 ,
   starting_magnetization(4) = 0.250000,
   tot_magnetization = 8.000000
/
&ELECTRONS
    electron_maxstep = 90.000000,
    scf_must_converge = .TRUE.,
    conv_thr = 1.D-6,
    mixing_mode = 'local-TF',
    diagonalization = 'david',
/
&IONS
   ion_dynamics = 'bfgs',
/
&CELL
   cell_dynamics = 'bfgs'
   cell_dofree = 'xyz'
/
ATOMIC_SPECIES
C    12.010700    C.pbesol-nc.UPF
H    1.007940    H.pbesol-n-nc.UPF
N    14.006700    N.pbesol-nc.UPF
Ni    58.693400    Ni.pbesol-n-nc.UPF
O    15.999400    O.pbesol-nc.UPF
K_POINTS {gamma}
CELL_PARAMETERS {angstrom}
     12.505600   0.000000   0.000000
     0.000000   12.523400   0.000000
     -0.227594   0.000000   10.274279
ATOMIC_POSITIONS {crystal}
C 0.285988  0.965489  0.525623
C 0.036511  0.026354  0.038566
C 0.384167  0.019130  0.554068
C 0.135322  0.973106  0.066099
C 0.439909  0.984501  0.668613
C 0.192784  0.012033  0.175836
C 0.200239  0.544782  0.513012
C 0.476211  0.499974  0.074804
C 0.243844  0.623321  0.604397
C 0.496527  0.445199  0.194753
C 0.244536  0.885399  0.612765
C 0.994420  0.105899  0.127969
C 0.404162  0.891132  0.736941
C 0.154669  0.102180  0.250024
C 0.080276  0.629019  0.711941
C 0.343586  0.340737  0.161705
C 0.035030  0.551727  0.623167
C 0.301616  0.422749  0.074278
C 0.099589  0.496316  0.535895
C 0.367170  0.507339  0.031023
C 0.429350  0.114628  0.468122
C 0.182314  0.879498  0.976078
C 0.060287  0.388458  0.468432
C 0.317128  0.608547  0.956224
C 0.792542  0.952689  0.510711
C 0.520758  0.995528  0.075380
C 0.893567  0.001592  0.537330
C 0.628333  0.991743  0.031481
C 0.957714  0.948113  0.630474
C 0.691894  0.079831  0.072698
C 0.709607  0.531430  0.529802
C 0.962785  0.478178  0.048799
C 0.749638  0.614663  0.615760
C 0.002654  0.395175  0.136654
C 0.749073  0.875625  0.602186
C 0.503550  0.048437  0.196259
C 0.912021  0.873349  0.719549
C 0.650664  0.159222  0.162190
C 0.591240  0.607630  0.734260
C 0.840314  0.394500  0.245764
C 0.556835  0.512825  0.666276
C 0.803878  0.487292  0.173913
C 0.612042  0.477748  0.555103
C 0.862656  0.529054  0.069983
C 0.935153  0.105958  0.465065
C 0.678877  0.892130  0.955969
C 0.568000  0.379929  0.471299
C 0.815425  0.622905  0.979251
C 0.607130  0.058224  0.699200
C 0.649137  0.170629  0.713567
C 0.005334  0.112350  0.847260
C 0.897246  0.152757  0.799690
C 0.206818  0.608900  0.306146
C 0.288266  0.697910  0.287919
C 0.603748  0.398329  0.970784
C 0.699360  0.397137  0.880540
C 0.792704  0.889064  0.303436
C 0.721480  0.791292  0.284739
C 0.391926  0.099744  0.970900
C 0.297182  0.103715  0.874526
C 0.390355  0.440816  0.695243
C 0.345706  0.329855  0.711862
C 0.996686  0.400471  0.855725
C 0.103740  0.362628  0.806986
H 0.242922  0.981794  0.436935
H 0.041859  0.965057  0.636911
H 0.266580  0.973546  0.205163
H 0.323225  0.654925  0.590184
H 0.079171  0.359703  0.119899
H 0.169889  0.846368  0.587858
H 0.435404  0.024530  0.250174
H 0.451148  0.861635  0.816972
H 0.199902  0.128762  0.333067
H 0.031411  0.662981  0.784784
H 0.292885  0.274768  0.187200
H 0.220426  0.419424  0.040373
H 0.769157  0.090226  0.031832
H 0.754479  0.510844  0.445561
H 0.823194  0.654814  0.592892
H 0.567471  0.466386  0.248664
H 0.670052  0.842894  0.584070
H 0.919218  0.143410  0.105346
H 0.959953  0.841760  0.797002
H 0.699640  0.227007  0.187671
H 0.544276  0.636898  0.812238
H 0.794285  0.366454  0.325032
H 0.951132  0.533929  0.625574
H 0.730430  0.525834  0.200608
H 0.617975  0.029763  0.598921
H 0.655944  0.007969  0.763107
H 0.716017  0.184595  0.646501
H 0.675066  0.182858  0.816159
H 0.585554  0.229543  0.690746
H 0.059314  0.098994  0.765290
H 0.044721  0.177124  0.903437
H 0.906392  0.210450  0.718736
H 0.856048  0.191692  0.880922
H 0.845912  0.085521  0.768199
H 0.128384  0.644997  0.332885
H 0.190972  0.569642  0.211294
H 0.365150  0.664501  0.254573
H 0.302394  0.741899  0.380295
H 0.257021  0.755354  0.214487
H 0.637013  0.368033  0.064302
H 0.542727  0.339747  0.935532
H 0.729155  0.476747  0.860068
H 0.765466  0.348861  0.923497
H 0.678777  0.363823  0.784805
H 0.875170  0.862362  0.332729
H 0.802694  0.928510  0.208379
H 0.642339  0.814787  0.243047
H 0.710140  0.749753  0.378570
H 0.760387  0.734685  0.217888
H 0.358642  0.128252  0.063773
H 0.453679  0.158173  0.940412
H 0.262681  0.025479  0.854587
H 0.233981  0.156533  0.912060
H 0.320334  0.134098  0.779371
H 0.346093  0.493608  0.758951
H 0.377291  0.466844  0.593591
H 0.405583  0.269095  0.685385
H 0.326403  0.318168  0.815570
H 0.273823  0.318335  0.648329
H 0.939406  0.416983  0.775225
H 0.959913  0.332302  0.906370
H 0.091954  0.309786  0.721316
H 0.146346  0.317728  0.884548
H 0.155569  0.430887  0.782834
N 0.302237  0.852644  0.721381
N 0.056433  0.148246  0.226499
N 0.186222  0.657101  0.709538
N 0.444270  0.350334  0.219112
N 0.806595  0.844579  0.711943
N 0.553032  0.145204  0.220836
N 0.692128  0.648274  0.721110
N 0.938335  0.348128  0.226027
Ni 0.247282  0.748935  0.851870
Ni 0.498661  0.247394  0.355670
Ni 0.748202  0.752584  0.852874
Ni 0.997516  0.247564  0.360008
O 0.115267  0.331730  0.378341
O 0.366429  0.667275  0.863334
O 0.376090  0.169861  0.371756
O 0.129283  0.830038  0.875714
O 0.467091  0.341899  0.477159
O 0.215739  0.646986  0.971243
O 0.033869  0.150878  0.484605
O 0.283903  0.839333  0.984663
O 0.621184  0.324538  0.378111
O 0.867326  0.672198  0.880631
O 0.879652  0.163029  0.372493
O 0.628844  0.833424  0.860798
O 0.961812  0.343236  0.483890
O 0.713802  0.662473  0.984186
O 0.530274  0.152559  0.478133
O 0.780921  0.854808  0.973402
O 0.500543  0.057786  0.737575
O 0.989803  0.016450  0.917357
O 0.247781  0.530976  0.394375
O 0.558294  0.502955  0.985179
O 0.745252  0.963532  0.388921
O 0.436150  0.994490  0.984848
O 0.498142  0.439070  0.733528
O 0.012780  0.493042  0.932857
