&CONTROL
   calculation = 'relax',
   prefix = 'NiPyC2_relax_sc211_ortho_functionalized_P-2CH3_pbesol_relax_frozen_parent_atoms',
   pseudo_dir = './pseudo/',
   outdir = '/nfs/hpc/share/gantzlen'
   wf_collect = .FALSE.,
   nstep = 200,
/
&SYSTEM
   ibrav = 0,
   nat = 172,
   ntyp = 6.000000,
   tot_charge = 0.000000,
   ecutwfc = 100.000000,
   
   vdw_corr = 'grimme-d2',
   occupations = 'smearing',
   degauss = 0.200000,
   smearing = 'mv',
   nspin = 2 ,
   starting_magnetization(4) = 0.250000,
   tot_magnetization = 8.000000
/
&ELECTRONS
    electron_maxstep = 40.000000,
    scf_must_converge = .FALSE.,
    conv_thr = 5.D-6,
    mixing_mode = 'local-TF',
    diagonalization = 'david',
/
&IONS
   ion_dynamics = 'bfgs',
/
&CELL
   cell_dynamics = 'bfgs'
   cell_dofree = 'xyz'
/
ATOMIC_SPECIES
C    12.010700    C.pbesol-nc.UPF
H    1.007940    H.pbesol-n-nc.UPF
N    14.006700    N.pbesol-nc.UPF
Ni    58.693400    Ni.pbesol-n-nc.UPF
O    15.999400    O.pbesol-nc.UPF
P    30.973762    P.pbesol-n-nc.UPF
K_POINTS {gamma}
CELL_PARAMETERS {angstrom}
     12.505600   0.000000   0.000000
     0.000000   12.523400   0.000000
     -0.227594   0.000000   10.274279
ATOMIC_POSITIONS {crystal}
C 0.288212  0.970050  0.521984 0 0 0
C 0.038379  0.031106  0.022308 0 0 0
C 0.390634  0.011770  0.546492 0 0 0
C 0.140244  0.987744  0.046146 0 0 0
C 0.451915  0.970202  0.650371 0 0 0
C 0.202520  0.028353  0.149893 0 0 0
C 0.208181  0.529704  0.526384 0 0 0
C 0.458545  0.471409  0.027904 0 0 0
C 0.245137  0.613331  0.606435 0 0 0
C 0.496819  0.388677  0.108617 0 0 0
C 0.249476  0.889206  0.603203 0 0 0
C 0.001069  0.112232  0.104247 0 0 0
C 0.407977  0.889383  0.727552 0 0 0
C 0.159935  0.109547  0.227812 0 0 0
C 0.088862  0.608983  0.727352 0 0 0
C 0.340890  0.391633  0.229394 0 0 0
C 0.046925  0.525079  0.651312 0 0 0
C 0.297658  0.474711  0.152754 0 0 0
C 0.108164  0.484270  0.550116 0 0 0
C 0.357832  0.515656  0.050638 0 0 0
C 0.433310  0.099319  0.466621 0 0 0
C 0.181517  0.899720  0.965672 0 0 0
C 0.067378  0.394474  0.470676 0 0 0
C 0.316043  0.604172  0.969107 0 0 0
C 0.788212  0.970050  0.521984 0 0 0
C 0.538379  0.031106  0.022308 0 0 0
C 0.890634  0.011770  0.546492 0 0 0
C 0.640244  0.987744  0.046146 0 0 0
C 0.951915  0.970202  0.650371 0 0 0
C 0.702520  0.028353  0.149893 0 0 0
C 0.708182  0.529704  0.526384 0 0 0
C 0.958546  0.471409  0.027904 0 0 0
C 0.745137  0.613331  0.606435 0 0 0
C 0.996819  0.388677  0.108617 0 0 0
C 0.749476  0.889206  0.603203 0 0 0
C 0.501069  0.112232  0.104247 0 0 0
C 0.907977  0.889383  0.727552 0 0 0
C 0.659934  0.109547  0.227812 0 0 0
C 0.588862  0.608983  0.727352 0 0 0
C 0.840890  0.391633  0.229394 0 0 0
C 0.546925  0.525079  0.651312 0 0 0
C 0.797658  0.474711  0.152754 0 0 0
C 0.608164  0.484270  0.550116 0 0 0
C 0.857832  0.515656  0.050638 0 0 0
C 0.933310  0.099319  0.466621 0 0 0
C 0.681517  0.899720  0.965672 0 0 0
C 0.567377  0.394474  0.470676 0 0 0
C 0.816043  0.604172  0.969107 0 0 0
C 0.393986  0.742854  0.954569 1 1 1
C 0.479312  0.946047  0.983202 1 1 1
C 0.148952  0.255664  0.455498 1 1 1
C 0.232064  0.051439  0.482653 1 1 1
C 0.385366  0.793974  0.689100 1 1 1
C 0.341562  0.755185  0.427714 1 1 1
C 0.339908  0.216031  0.424486 1 1 1
C 0.161580  0.256082  0.266933 1 1 1
C 0.588136  0.742585  0.714355 1 1 1
C 0.530966  0.945716  0.631148 1 1 1
C 0.663283  0.282211  0.426825 1 1 1
C 0.837965  0.247604  0.270784 1 1 1
C 0.585711  0.785911  0.920452 1 1 1
C 0.408271  0.743141  0.762487 1 1 1
C 0.140243  0.210889  0.192551 1 1 1
C 0.096200  0.248030  0.930861 1 1 1
H 0.237124  0.999575  0.443113 0 0 0
H 0.486538  0.002692  0.943499 0 0 0
H 0.032063  0.998805  0.673520 0 0 0
H 0.282340  0.998665  0.172602 0 0 0
H 0.258700  0.500895  0.449282 0 0 0
H 0.008641  0.500397  0.950548 0 0 0
H 0.170154  0.855123  0.588560 0 0 0
H 0.422322  0.147732  0.089886 0 0 0
H 0.043729  0.642944  0.806608 0 0 0
H 0.468672  0.493231  0.673502 0 0 0
H 0.218952  0.505201  0.175264 0 0 0
H 0.737124  0.999575  0.443113 0 0 0
H 0.986538  0.002692  0.943499 0 0 0
H 0.532062  0.998805  0.673520 0 0 0
H 0.782340  0.998665  0.172602 0 0 0
H 0.758700  0.500895  0.449282 0 0 0
H 0.508641  0.500397  0.950548 0 0 0
H 0.822641  0.650506  0.592635 0 0 0
H 0.574968  0.352851  0.095028 0 0 0
H 0.922322  0.147732  0.089886 0 0 0
H 0.953370  0.855173  0.808761 0 0 0
H 0.796378  0.357526  0.309051 0 0 0
H 0.968672  0.493231  0.673502 0 0 0
H 0.718952  0.505201  0.175264 0 0 0
H 0.375254  0.671665  0.893991 1 1 1
H 0.319360  0.786653  0.976575 1 1 1
H 0.431112  0.715734  0.047872 1 1 1
H 0.524059  0.015904  0.946951 1 1 1
H 0.513262  0.923045  0.079836 1 1 1
H 0.394246  0.969078  0.993589 1 1 1
H 0.130705  0.327206  0.395337 1 1 1
H 0.073961  0.212673  0.477977 1 1 1
H 0.186915  0.282136  0.548599 1 1 1
H 0.275783  0.981159  0.445757 1 1 1
H 0.266823  0.073821  0.579097 1 1 1
H 0.146811  0.029361  0.493677 1 1 1
H 0.393778  0.765847  0.791181 1 1 1
H 0.312490  0.843954  0.677227 1 1 1
H 0.455812  0.843929  0.666478 1 1 1
H 0.324013  0.701160  0.344638 1 1 1
H 0.408348  0.808798  0.401515 1 1 1
H 0.269305  0.803795  0.446305 1 1 1
H 0.414427  0.243260  0.474807 1 1 1
H 0.359504  0.163198  0.341620 1 1 1
H 0.292270  0.169338  0.494304 1 1 1
H 0.107640  0.310317  0.211266 1 1 1
H 0.112640  0.205625  0.331403 1 1 1
H 0.203985  0.204278  0.197282 1 1 1
H 0.640783  0.671443  0.709814 1 1 1
H 0.603210  0.786410  0.806846 1 1 1
H 0.503693  0.715389  0.712146 1 1 1
H 0.538858  0.015571  0.565980 1 1 1
H 0.445395  0.922637  0.633882 1 1 1
H 0.559021  0.968785  0.730409 1 1 1
H 0.590617  0.252952  0.475536 1 1 1
H 0.640494  0.335915  0.344868 1 1 1
H 0.712043  0.328682  0.498326 1 1 1
H 0.891307  0.195148  0.214637 1 1 1
H 0.887815  0.297940  0.337037 1 1 1
H 0.792748  0.299686  0.201712 1 1 1
H 0.660319  0.759713  0.971414 1 1 1
H 0.605091  0.838342  0.837130 1 1 1
H 0.537405  0.832651  0.989536 1 1 1
H 0.355018  0.688032  0.707143 1 1 1
H 0.358646  0.793596  0.826175 1 1 1
H 0.450427  0.794843  0.692498 1 1 1
H 0.147956  0.239495  0.294497 1 1 1
H 0.068313  0.159555  0.180760 1 1 1
H 0.211636  0.162152  0.170376 1 1 1
H 0.077811  0.301458  0.847456 1 1 1
H 0.164007  0.195556  0.905121 1 1 1
H 0.024809  0.198175  0.949526 1 1 1
N 0.308437  0.851253  0.704828 0 0 0
N 0.060729  0.148857  0.206052 0 0 0
N 0.186542  0.650310  0.705838 0 0 0
N 0.438810  0.350928  0.208041 0 0 0
N 0.808437  0.851253  0.704828 0 0 0
N 0.560729  0.148857  0.206052 0 0 0
N 0.686543  0.650310  0.705838 0 0 0
N 0.938810  0.350928  0.208041 0 0 0
Ni 0.247002  0.751486  0.836326 0 0 0
Ni 0.499972  0.247999  0.339178 0 0 0
Ni 0.747002  0.751486  0.836326 0 0 0
Ni 0.999972  0.247999  0.339178 0 0 0
O 0.122778  0.347689  0.382873 0 0 0
O 0.371208  0.650977  0.881292 0 0 0
O 0.377630  0.147507  0.377178 0 0 0
O 0.125098  0.852352  0.876261 0 0 0
O 0.473069  0.356160  0.482994 0 0 0
O 0.221137  0.641415  0.979877 0 0 0
O 0.028840  0.135158  0.481078 0 0 0
O 0.276686  0.862758  0.979399 0 0 0
O 0.622779  0.347689  0.382873 0 0 0
O 0.871208  0.650977  0.881292 0 0 0
O 0.877630  0.147507  0.377178 0 0 0
O 0.625098  0.852352  0.876261 0 0 0
O 0.973069  0.356160  0.482994 0 0 0
O 0.721137  0.641415  0.979877 0 0 0
O 0.528840  0.135158  0.481078 0 0 0
O 0.776686  0.862758  0.979399 0 0 0
P 0.490774  0.830776  0.868871 1 1 1
P 0.244207  0.166841  0.368640 1 1 1
P 0.380953  0.676915  0.575999 1 1 1
P 0.259735  0.334147  0.368370 1 1 1
P 0.610642  0.830508  0.570347 1 1 1
P 0.743946  0.166357  0.369162 1 1 1
P 0.506819  0.666683  0.865211 1 1 1
P 0.133887  0.327482  0.078820 1 1 1
