&CONTROL
   calculation = 'relax',
   prefix = 'NiPyC2_relax_sc211_ortho_functionalized_O-CH2-CH3_pbesol_relax_frozen_parent_atoms',
   pseudo_dir = './pseudo/',
   outdir = '/nfs/hpc/share/gantzlen'
   wf_collect = .FALSE.,
   nstep = 200,
/
&SYSTEM
   ibrav = 0,
   nat = 164,
   ntyp = 5.000000,
   tot_charge = 0.000000,
   ecutwfc = 100.000000,
   
   vdw_corr = 'grimme-d2',
   occupations = 'smearing',
   degauss = 0.200000,
   smearing = 'mv',
   nspin = 2 ,
   starting_magnetization(4) = 0.250000,
   tot_magnetization = 8.000000
/
&ELECTRONS
    electron_maxstep = 40.000000,
    scf_must_converge = .FALSE.,
    conv_thr = 5.D-6,
    mixing_mode = 'local-TF',
    diagonalization = 'david',
/
&IONS
   ion_dynamics = 'bfgs',
/
&CELL
   cell_dynamics = 'bfgs'
   cell_dofree = 'xyz'
/
ATOMIC_SPECIES
C    12.010700    C.pbesol-nc.UPF
H    1.007940    H.pbesol-n-nc.UPF
N    14.006700    N.pbesol-nc.UPF
Ni    58.693400    Ni.pbesol-n-nc.UPF
O    15.999400    O.pbesol-nc.UPF
K_POINTS {gamma}
CELL_PARAMETERS {angstrom}
     12.505600   0.000000   0.000000
     0.000000   12.523400   0.000000
     -0.227594   0.000000   10.274279
ATOMIC_POSITIONS {crystal}
C 0.288212  0.970050  0.521984 0 0 0
C 0.038379  0.031106  0.022308 0 0 0
C 0.390634  0.011770  0.546492 0 0 0
C 0.140244  0.987744  0.046146 0 0 0
C 0.451915  0.970202  0.650371 0 0 0
C 0.202520  0.028353  0.149893 0 0 0
C 0.208181  0.529704  0.526384 0 0 0
C 0.458545  0.471409  0.027904 0 0 0
C 0.245137  0.613331  0.606435 0 0 0
C 0.496819  0.388677  0.108617 0 0 0
C 0.249476  0.889206  0.603203 0 0 0
C 0.001069  0.112232  0.104247 0 0 0
C 0.407977  0.889383  0.727552 0 0 0
C 0.159935  0.109547  0.227812 0 0 0
C 0.088862  0.608983  0.727352 0 0 0
C 0.340890  0.391633  0.229394 0 0 0
C 0.046925  0.525079  0.651312 0 0 0
C 0.297658  0.474711  0.152754 0 0 0
C 0.108164  0.484270  0.550116 0 0 0
C 0.357832  0.515656  0.050638 0 0 0
C 0.433310  0.099319  0.466621 0 0 0
C 0.181517  0.899720  0.965672 0 0 0
C 0.067378  0.394474  0.470676 0 0 0
C 0.316043  0.604172  0.969107 0 0 0
C 0.788212  0.970050  0.521984 0 0 0
C 0.538379  0.031106  0.022308 0 0 0
C 0.890634  0.011770  0.546492 0 0 0
C 0.640244  0.987744  0.046146 0 0 0
C 0.951915  0.970202  0.650371 0 0 0
C 0.702520  0.028353  0.149893 0 0 0
C 0.708182  0.529704  0.526384 0 0 0
C 0.958546  0.471409  0.027904 0 0 0
C 0.745137  0.613331  0.606435 0 0 0
C 0.996819  0.388677  0.108617 0 0 0
C 0.749476  0.889206  0.603203 0 0 0
C 0.501069  0.112232  0.104247 0 0 0
C 0.907977  0.889383  0.727552 0 0 0
C 0.659934  0.109547  0.227812 0 0 0
C 0.588862  0.608983  0.727352 0 0 0
C 0.840890  0.391633  0.229394 0 0 0
C 0.546925  0.525079  0.651312 0 0 0
C 0.797658  0.474711  0.152754 0 0 0
C 0.608164  0.484270  0.550116 0 0 0
C 0.857832  0.515656  0.050638 0 0 0
C 0.933310  0.099319  0.466621 0 0 0
C 0.681517  0.899720  0.965672 0 0 0
C 0.567377  0.394474  0.470676 0 0 0
C 0.816043  0.604172  0.969107 0 0 0
C 0.097289  0.770312  0.644271 1 1 1
C 0.987323  0.748911  0.583707 1 1 1
C 0.850823  0.233313  0.146425 1 1 1
C 0.741134  0.256696  0.086230 1 1 1
C 0.392899  0.739253  0.648301 1 1 1
C 0.500654  0.764362  0.589771 1 1 1
C 0.646846  0.265608  0.151480 1 1 1
C 0.755153  0.242275  0.093362 1 1 1
C 0.597287  0.770316  0.644276 1 1 1
C 0.487323  0.748912  0.583708 1 1 1
C 0.350820  0.233309  0.146430 1 1 1
C 0.241134  0.256695  0.086231 1 1 1
C 0.892899  0.739254  0.648300 1 1 1
C 0.000654  0.764364  0.589769 1 1 1
C 0.146845  0.265607  0.151481 1 1 1
C 0.255152  0.242273  0.093363 1 1 1
H 0.237124  0.999575  0.443113 0 0 0
H 0.486538  0.002692  0.943499 0 0 0
H 0.032063  0.998805  0.673520 0 0 0
H 0.282340  0.998665  0.172602 0 0 0
H 0.258700  0.500895  0.449282 0 0 0
H 0.008641  0.500397  0.950548 0 0 0
H 0.453370  0.855173  0.808761 0 0 0
H 0.206239  0.143103  0.308797 0 0 0
H 0.043729  0.642944  0.806608 0 0 0
H 0.296378  0.357526  0.309051 0 0 0
H 0.468672  0.493231  0.673502 0 0 0
H 0.218952  0.505201  0.175264 0 0 0
H 0.737124  0.999575  0.443113 0 0 0
H 0.986538  0.002692  0.943499 0 0 0
H 0.532062  0.998805  0.673520 0 0 0
H 0.782340  0.998665  0.172602 0 0 0
H 0.758700  0.500895  0.449282 0 0 0
H 0.508641  0.500397  0.950548 0 0 0
H 0.953370  0.855173  0.808761 0 0 0
H 0.706240  0.143103  0.308797 0 0 0
H 0.543729  0.642944  0.806608 0 0 0
H 0.796378  0.357526  0.309051 0 0 0
H 0.968672  0.493231  0.673502 0 0 0
H 0.718952  0.505201  0.175264 0 0 0
H 0.087679  0.796112  0.746886 1 1 1
H 0.145115  0.695518  0.641646 1 1 1
H 0.938004  0.822630  0.585918 1 1 1
H 0.946538  0.685271  0.639166 1 1 1
H 0.995169  0.722510  0.481173 1 1 1
H 0.840940  0.207220  0.248885 1 1 1
H 0.899821  0.307360  0.144215 1 1 1
H 0.690659  0.183749  0.088036 1 1 1
H 0.701435  0.320724  0.142210 1 1 1
H 0.749263  0.283417  0.983859 1 1 1
H 0.341847  0.811885  0.642818 1 1 1
H 0.405673  0.715520  0.751748 1 1 1
H 0.489618  0.788773  0.486432 1 1 1
H 0.539802  0.830553  0.644684 1 1 1
H 0.553143  0.692862  0.594847 1 1 1
H 0.597142  0.192041  0.146256 1 1 1
H 0.658999  0.289904  0.254827 1 1 1
H 0.744750  0.217333  0.990131 1 1 1
H 0.795411  0.176985  0.148725 1 1 1
H 0.806315  0.314734  0.098190 1 1 1
H 0.645113  0.695521  0.641659 1 1 1
H 0.587674  0.796122  0.746887 1 1 1
H 0.495172  0.722504  0.481177 1 1 1
H 0.446536  0.685275  0.639170 1 1 1
H 0.438004  0.822631  0.585909 1 1 1
H 0.399819  0.307357  0.144228 1 1 1
H 0.340935  0.207211  0.248886 1 1 1
H 0.249266  0.283423  0.983863 1 1 1
H 0.201433  0.320720  0.142214 1 1 1
H 0.190659  0.183748  0.088028 1 1 1
H 0.841847  0.811886  0.642817 1 1 1
H 0.905674  0.715521  0.751746 1 1 1
H 0.989617  0.788775  0.486430 1 1 1
H 0.039801  0.830555  0.644682 1 1 1
H 0.053143  0.692864  0.594845 1 1 1
H 0.097141  0.192041  0.146256 1 1 1
H 0.158999  0.289902  0.254827 1 1 1
H 0.244749  0.217331  0.990132 1 1 1
H 0.295410  0.176983  0.148726 1 1 1
H 0.306315  0.314732  0.098190 1 1 1
N 0.308437  0.851253  0.704828 0 0 0
N 0.060729  0.148857  0.206052 0 0 0
N 0.186542  0.650310  0.705838 0 0 0
N 0.438810  0.350928  0.208041 0 0 0
N 0.808437  0.851253  0.704828 0 0 0
N 0.560729  0.148857  0.206052 0 0 0
N 0.686543  0.650310  0.705838 0 0 0
N 0.938810  0.350928  0.208041 0 0 0
Ni 0.247002  0.751486  0.836326 0 0 0
Ni 0.499972  0.247999  0.339178 0 0 0
Ni 0.747002  0.751486  0.836326 0 0 0
Ni 0.999972  0.247999  0.339178 0 0 0
O 0.122778  0.347689  0.382873 0 0 0
O 0.371208  0.650977  0.881292 0 0 0
O 0.377630  0.147507  0.377178 0 0 0
O 0.125098  0.852352  0.876261 0 0 0
O 0.473069  0.356160  0.482994 0 0 0
O 0.221137  0.641415  0.979877 0 0 0
O 0.028840  0.135158  0.481078 0 0 0
O 0.276686  0.862758  0.979399 0 0 0
O 0.622779  0.347689  0.382873 0 0 0
O 0.871208  0.650977  0.881292 0 0 0
O 0.877630  0.147507  0.377178 0 0 0
O 0.625098  0.852352  0.876261 0 0 0
O 0.973069  0.356160  0.482994 0 0 0
O 0.721137  0.641415  0.979877 0 0 0
O 0.528840  0.135158  0.481078 0 0 0
O 0.776686  0.862758  0.979399 0 0 0
O 0.147522  0.849530  0.574794 1 1 1
O 0.899702  0.153622  0.076301 1 1 1
O 0.344696  0.656874  0.579517 1 1 1
O 0.597261  0.346872  0.082137 1 1 1
O 0.647521  0.849531  0.574794 1 1 1
O 0.399702  0.153621  0.076302 1 1 1
O 0.844696  0.656875  0.579516 1 1 1
O 0.097261  0.346872  0.082137 1 1 1
