&CONTROL
   calculation = 'relax',
   prefix = 'NiPyC2_relax_sc211_ortho_functionalized_CH-CH2_pbesol_relax',
   pseudo_dir = './pseudo/',
   outdir = '/nfs/hpc/share/gantzlen'
   wf_collect = .FALSE.,
   nstep = 200,
/
&SYSTEM
   ibrav = 0,
   nat = 140,
   ntyp = 5.000000,
   tot_charge = 0.000000,
   ecutwfc = 100.000000,
   
   vdw_corr = 'grimme-d2',
   occupations = 'smearing',
   degauss = 0.200000,
   smearing = 'mv',
   nspin = 2 ,
   starting_magnetization(4) = 0.250000,
   tot_magnetization = 8.000000
/
&ELECTRONS
    electron_maxstep = 90.000000,
    scf_must_converge = .TRUE.,
    conv_thr = 1.D-6,
    mixing_mode = 'local-TF',
    diagonalization = 'david',
/
&IONS
   ion_dynamics = 'bfgs',
/
&CELL
   cell_dynamics = 'bfgs'
   cell_dofree = 'xyz'
/
ATOMIC_SPECIES
C    12.010700    C.pbesol-nc.UPF
H    1.007940    H.pbesol-n-nc.UPF
N    14.006700    N.pbesol-nc.UPF
Ni    58.693400    Ni.pbesol-n-nc.UPF
O    15.999400    O.pbesol-nc.UPF
K_POINTS {gamma}
CELL_PARAMETERS {angstrom}
     12.505600   0.000000   0.000000
     0.000000   12.523400   0.000000
     -0.227594   0.000000   10.274279
ATOMIC_POSITIONS {crystal}
C 0.288212  0.970050  0.521984
C 0.038379  0.031106  0.022308
C 0.390634  0.011770  0.546492
C 0.140244  0.987744  0.046146
C 0.451915  0.970202  0.650371
C 0.202520  0.028353  0.149893
C 0.208181  0.529704  0.526384
C 0.458545  0.471409  0.027904
C 0.245137  0.613331  0.606435
C 0.496819  0.388677  0.108617
C 0.249476  0.889206  0.603203
C 0.001069  0.112232  0.104247
C 0.407977  0.889383  0.727552
C 0.159935  0.109547  0.227812
C 0.088862  0.608983  0.727352
C 0.340890  0.391633  0.229394
C 0.046925  0.525079  0.651312
C 0.297658  0.474711  0.152754
C 0.108164  0.484270  0.550116
C 0.357832  0.515656  0.050638
C 0.433310  0.099319  0.466621
C 0.181517  0.899720  0.965672
C 0.067378  0.394474  0.470676
C 0.316043  0.604172  0.969107
C 0.788212  0.970050  0.521984
C 0.538379  0.031106  0.022308
C 0.890634  0.011770  0.546492
C 0.640244  0.987744  0.046146
C 0.951915  0.970202  0.650371
C 0.702520  0.028353  0.149893
C 0.708182  0.529704  0.526384
C 0.958546  0.471409  0.027904
C 0.745137  0.613331  0.606435
C 0.996819  0.388677  0.108617
C 0.749476  0.889206  0.603203
C 0.501069  0.112232  0.104247
C 0.907977  0.889383  0.727552
C 0.659934  0.109547  0.227812
C 0.588862  0.608983  0.727352
C 0.840890  0.391633  0.229394
C 0.546925  0.525079  0.651312
C 0.797658  0.474711  0.152754
C 0.608164  0.484270  0.550116
C 0.857832  0.515656  0.050638
C 0.933310  0.099319  0.466621
C 0.681517  0.899720  0.965672
C 0.567377  0.394474  0.470676
C 0.816043  0.604172  0.969107
C 0.474266  0.840867  0.843452
C 0.439127  0.763472  0.922392
C 0.888659  0.162689  0.079671
C 0.846554  0.240468  0.152680
C 0.022958  0.657193  0.839978
C 0.056532  0.737436  0.917527
C 0.275701  0.343606  0.342955
C 0.310273  0.264216  0.421191
C 0.636331  0.840623  0.578080
C 0.592899  0.763199  0.650468
C 0.727453  0.157023  0.343296
C 0.693603  0.234505  0.422967
C 0.855563  0.666303  0.582849
C 0.897104  0.746649  0.654425
C 0.108294  0.337653  0.085550
C 0.151174  0.258308  0.157657
H 0.237124  0.999575  0.443113
H 0.486538  0.002692  0.943499
H 0.032063  0.998805  0.673520
H 0.282340  0.998665  0.172602
H 0.258700  0.500895  0.449282
H 0.008641  0.500397  0.950548
H 0.322641  0.650506  0.592635
H 0.170154  0.855123  0.588560
H 0.422322  0.147732  0.089886
H 0.206239  0.143103  0.308797
H 0.468672  0.493231  0.673502
H 0.218952  0.505201  0.175264
H 0.737124  0.999575  0.443113
H 0.986538  0.002692  0.943499
H 0.532062  0.998805  0.673520
H 0.782340  0.998665  0.172602
H 0.758700  0.500895  0.449282
H 0.508641  0.500397  0.950548
H 0.574968  0.352851  0.095028
H 0.953370  0.855173  0.808761
H 0.543729  0.642944  0.806608
H 0.796378  0.357526  0.309051
H 0.968672  0.493231  0.673502
H 0.718952  0.505201  0.175264
H 0.553625  0.867919  0.866315
H 0.361143  0.727088  0.913256
H 0.491301  0.734784  0.000691
H 0.837892  0.136826  0.000653
H 0.886774  0.275819  0.236020
H 0.767300  0.270583  0.127738
H 0.945098  0.627575  0.861592
H 0.132908  0.776596  0.909327
H 0.004703  0.765653  0.993624
H 0.197646  0.372665  0.364640
H 0.386977  0.225695  0.413030
H 0.258962  0.236061  0.497845
H 0.586086  0.867620  0.499145
H 0.632442  0.726862  0.733638
H 0.513210  0.734436  0.625167
H 0.806679  0.129138  0.365248
H 0.615930  0.271657  0.414784
H 0.746562  0.262441  0.500903
H 0.905344  0.640222  0.505708
H 0.857703  0.782584  0.735830
H 0.974998  0.778378  0.630289
H 0.157728  0.364386  0.008401
H 0.112291  0.221926  0.239149
H 0.229684  0.227925  0.133891
N 0.308437  0.851253  0.704828
N 0.060729  0.148857  0.206052
N 0.186542  0.650310  0.705838
N 0.438810  0.350928  0.208041
N 0.808437  0.851253  0.704828
N 0.560729  0.148857  0.206052
N 0.686543  0.650310  0.705838
N 0.938810  0.350928  0.208041
Ni 0.247002  0.751486  0.836326
Ni 0.499972  0.247999  0.339178
Ni 0.747002  0.751486  0.836326
Ni 0.999972  0.247999  0.339178
O 0.122778  0.347689  0.382873
O 0.371208  0.650977  0.881292
O 0.377630  0.147507  0.377178
O 0.125098  0.852352  0.876261
O 0.473069  0.356160  0.482994
O 0.221137  0.641415  0.979877
O 0.028840  0.135158  0.481078
O 0.276686  0.862758  0.979399
O 0.622779  0.347689  0.382873
O 0.871208  0.650977  0.881292
O 0.877630  0.147507  0.377178
O 0.625098  0.852352  0.876261
O 0.973069  0.356160  0.482994
O 0.721137  0.641415  0.979877
O 0.528840  0.135158  0.481078
O 0.776686  0.862758  0.979399
