&CONTROL
   calculation = 'relax',
   prefix = 'NiPyC2_relax_sc211_ortho_functionalized_O-CH3_lammps_vdw-df2_relax',
   pseudo_dir = './pseudo/',
   outdir = '/nfs/hpc/share/gantzlen'
   wf_collect = .FALSE.,
   nstep = 200,
/
&SYSTEM
   ibrav = 0,
   nat = 140,
   ntyp = 5.000000,
   tot_charge = 0.000000,
   ecutwfc = 100.000000,
   input_dft = 'vdw-df2',
   vdw_corr = 'grimme-d2',
   occupations = 'smearing',
   degauss = 0.200000,
   smearing = 'mv',
   nspin = 2 ,
   starting_magnetization(4) = 0.250000,
   tot_magnetization = 8.000000
/
&ELECTRONS
    electron_maxstep = 90.000000,
    scf_must_converge = .TRUE.,
    conv_thr = 1.D-6,
    mixing_mode = 'local-TF',
    diagonalization = 'david',
/
&IONS
   ion_dynamics = 'bfgs',
/
&CELL
   cell_dynamics = 'bfgs'
   cell_dofree = 'xyz'
/
ATOMIC_SPECIES
C    12.010700    C.pbesol-nc.UPF
H    1.007940    H.pbesol-n-nc.UPF
N    14.006700    N.pbesol-nc.UPF
Ni    58.693400    Ni.pbesol-n-nc.UPF
O    15.999400    O.pbesol-nc.UPF
K_POINTS {gamma}
CELL_PARAMETERS {angstrom}
     12.505600   0.000000   0.000000
     0.000000   12.523400   0.000000
     -0.227594   0.000000   10.274279
ATOMIC_POSITIONS {crystal}
C 0.324761  0.927791  0.517164
C 0.069247  0.064504  0.043687
C 0.420318  0.986984  0.544095
C 0.161859  0.004517  0.082544
C 0.465861  0.970847  0.667895
C 0.203110  0.031718  0.208164
C 0.178137  0.564740  0.546601
C 0.481357  0.472289  0.058359
C 0.239902  0.625067  0.643114
C 0.520728  0.383992  0.137818
C 0.269478  0.870626  0.620533
C 0.007745  0.125400  0.137209
C 0.416575  0.901896  0.760678
C 0.150717  0.111614  0.291136
C 0.097702  0.610551  0.790163
C 0.365243  0.389920  0.265156
C 0.046180  0.529617  0.705404
C 0.327257  0.482589  0.192365
C 0.087162  0.503199  0.581559
C 0.384292  0.525166  0.086415
C 0.468088  0.074767  0.448220
C 0.213062  0.910024  0.990853
C 0.036260  0.409350  0.486962
C 0.339809  0.625326  0.003984
C 0.772361  0.971885  0.546817
C 0.538559  0.031120  0.011081
C 0.868047  0.026561  0.581059
C 0.624450  0.961967  0.043381
C 0.923255  0.987024  0.693570
C 0.688890  0.992829  0.150084
C 0.726087  0.503205  0.552817
C 0.916194  0.430982  0.012531
C 0.747371  0.604630  0.611150
C 0.972683  0.372723  0.116826
C 0.732042  0.885526  0.625185
C 0.506556  0.113654  0.100155
C 0.884029  0.895739  0.766770
C 0.666947  0.087531  0.219944
C 0.571851  0.612072  0.687013
C 0.826444  0.403619  0.251648
C 0.546152  0.513670  0.623810
C 0.780257  0.478211  0.161068
C 0.622589  0.459724  0.548938
C 0.822793  0.492546  0.037877
C 0.913146  0.124604  0.497090
C 0.654247  0.858840  0.966085
C 0.595264  0.350173  0.482079
C 0.776004  0.581428  0.941065
C 0.121420  0.815146  0.498666
C 0.207119  0.133694  0.509913
C 0.044829  0.631871  0.006103
C 0.311216  0.375357  0.477391
C 0.938335  0.872511  0.982609
C 0.403490  0.216513  0.961313
C 0.839216  0.695522  0.457851
C 0.119871  0.317467  0.000914
H 0.287944  0.932798  0.422411
H 0.513892  0.039372  0.911876
H 0.999797  0.021537  0.720863
H 0.282761  0.005206  0.233828
H 0.204756  0.562763  0.447247
H 0.951512  0.436384  0.918851
H 0.318081  0.654292  0.617986
H 0.448646  0.896785  0.855768
H 0.471125  0.475822  0.644589
H 0.251229  0.517736  0.216811
H 0.729222  0.993125  0.459295
H 0.040979  0.060690  0.943742
H 0.538891  0.012296  0.694953
H 0.757685  0.945143  0.178764
H 0.791077  0.456450  0.526204
H 0.525537  0.496024  0.974063
H 0.596423  0.348004  0.114322
H 0.656572  0.849370  0.596946
H 0.929316  0.154387  0.108302
H 0.717383  0.107662  0.299377
H 0.511103  0.653207  0.738561
H 0.792291  0.397187  0.342716
H 0.967194  0.501764  0.727796
H 0.711581  0.524717  0.189280
H 0.085860  0.877589  0.434332
H 0.057763  0.757726  0.522965
H 0.182883  0.770710  0.443330
H 0.286402  0.128120  0.555231
H 0.160772  0.059138  0.524508
H 0.178372  0.200534  0.570204
H 0.966772  0.625272  0.049952
H 0.074569  0.698715  0.067101
H 0.091550  0.557320  0.021531
H 0.237152  0.382752  0.526106
H 0.335341  0.308934  0.541401
H 0.357497  0.450511  0.488824
H 0.012883  0.879298  0.036051
H 0.914091  0.801995  0.038474
H 0.888335  0.944943  0.998532
H 0.363797  0.164415  0.887250
H 0.354365  0.289421  0.970871
H 0.482730  0.243059  0.925133
H 0.878747  0.637581  0.392639
H 0.884143  0.771599  0.454503
H 0.757292  0.713983  0.418356
H 0.157310  0.379242  0.939192
H 0.182135  0.258457  0.028574
H 0.057551  0.274849  0.941522
N 0.322880  0.849490  0.737059
N 0.050984  0.154587  0.256964
N 0.197090  0.653920  0.760851
N 0.461491  0.340419  0.237222
N 0.788343  0.845617  0.731920
N 0.572490  0.141392  0.204611
N 0.674491  0.650543  0.692100
N 0.920748  0.350413  0.231120
Ni 0.269720  0.760579  0.885240
Ni 0.525343  0.225174  0.354983
Ni 0.721500  0.732358  0.845110
Ni 0.979328  0.260476  0.380016
O 0.092095  0.350357  0.399739
O 0.387379  0.673207  0.901265
O 0.409440  0.139873  0.366897
O 0.156382  0.849346  0.902917
O 0.500556  0.303469  0.493813
O 0.244533  0.673460  0.021564
O 0.008508  0.173028  0.516985
O 0.313160  0.865148  0.003811
O 0.643607  0.306948  0.376365
O 0.835936  0.645738  0.864174
O 0.863777  0.172772  0.393479
O 0.604863  0.816679  0.858127
O 0.938035  0.362390  0.497362
O 0.676554  0.625207  0.949485
O 0.567531  0.117601  0.462886
O 0.746976  0.809349  0.985110
O 0.158908  0.863048  0.615501
O 0.214217  0.166987  0.379219
O 0.034046  0.665198  0.875249
O 0.295807  0.340848  0.347608
O 0.954372  0.845002  0.851027
O 0.408211  0.162895  0.082752
O 0.842441  0.656134  0.587127
O 0.083256  0.365869  0.115868
