&CONTROL
   calculation = 'relax',
   prefix = 'NiPyC2_relax_sc211_meta_functionalized_P-2CH3_lammps_vdw-df2_relax',
   pseudo_dir = './pseudo/',
   outdir = '/nfs/hpc/share/gantzlen'
   wf_collect = .FALSE.,
   nstep = 200,
/
&SYSTEM
   ibrav = 0,
   nat = 172,
   ntyp = 6.000000,
   tot_charge = 0.000000,
   ecutwfc = 100.000000,
   input_dft = 'vdw-df2',
   vdw_corr = 'grimme-d2',
   occupations = 'smearing',
   degauss = 0.200000,
   smearing = 'mv',
   nspin = 2 ,
   starting_magnetization(4) = 0.250000,
   tot_magnetization = 8.000000
/
&ELECTRONS
    electron_maxstep = 90.000000,
    scf_must_converge = .TRUE.,
    conv_thr = 1.D-6,
    mixing_mode = 'local-TF',
    diagonalization = 'david',
/
&IONS
   ion_dynamics = 'bfgs',
/
&CELL
   cell_dynamics = 'bfgs'
   cell_dofree = 'xyz'
/
ATOMIC_SPECIES
C    12.010700    C.pbesol-nc.UPF
H    1.007940    H.pbesol-n-nc.UPF
N    14.006700    N.pbesol-nc.UPF
Ni    58.693400    Ni.pbesol-n-nc.UPF
O    15.999400    O.pbesol-nc.UPF
P    30.973762    P.pbesol-n-nc.UPF
K_POINTS {gamma}
CELL_PARAMETERS {angstrom}
     12.505600   0.000000   0.000000
     0.000000   12.523400   0.000000
     -0.227594   0.000000   10.274279
ATOMIC_POSITIONS {crystal}
C 0.314926  0.965976  0.499804
C 0.075795  0.082680  0.040587
C 0.390583  0.048843  0.528266
C 0.167478  0.022656  0.074772
C 0.432820  0.048012  0.657313
C 0.212003  0.046872  0.198275
C 0.200882  0.572995  0.543098
C 0.505917  0.546744  0.095446
C 0.260532  0.634762  0.640879
C 0.549917  0.444610  0.139310
C 0.277823  0.894318  0.599537
C 0.016360  0.141170  0.138636
C 0.407401  0.963093  0.746508
C 0.158808  0.118984  0.288905
C 0.102065  0.659806  0.753904
C 0.382912  0.362299  0.114190
C 0.049035  0.576188  0.677241
C 0.334635  0.464901  0.074682
C 0.103364  0.519757  0.579468
C 0.397822  0.557143  0.054257
C 0.447004  0.120344  0.419439
C 0.216519  0.932806  0.979349
C 0.056274  0.407672  0.512224
C 0.352538  0.660817  0.978443
C 0.753021  0.972236  0.543414
C 0.539499  0.967197  0.075134
C 0.864015  0.010105  0.549350
C 0.643161  0.950557  0.035671
C 0.934071  0.936199  0.612115
C 0.723743  0.015122  0.095414
C 0.700009  0.540734  0.490183
C 0.901256  0.417110  0.019992
C 0.733099  0.617607  0.584894
C 0.957363  0.357986  0.119067
C 0.718115  0.908723  0.650398
C 0.508406  0.064976  0.132358
C 0.892719  0.845441  0.683154
C 0.690473  0.113571  0.163734
C 0.581082  0.579375  0.708228
C 0.885777  0.465168  0.281541
C 0.551523  0.494260  0.621356
C 0.836455  0.533395  0.183110
C 0.618522  0.468547  0.515849
C 0.845134  0.510791  0.049673
C 0.909971  0.125963  0.494879
C 0.670256  0.851558  0.955286
C 0.586452  0.380309  0.418721
C 0.792773  0.584824  0.941504
C 0.650111  0.155696  0.711759
C 0.484373  0.189407  0.882332
C 0.897794  0.116970  0.835075
C 0.147015  0.099333  0.760743
C 0.333221  0.683774  0.346354
C 0.096544  0.726494  0.368290
C 0.180691  0.412538  0.220320
C 0.098529  0.583389  0.078516
C 0.552248  0.889918  0.395533
C 0.746780  0.793688  0.352596
C 0.927788  0.949135  0.266892
C 0.949274  0.863168  0.031361
C 0.388359  0.428555  0.814980
C 0.324706  0.362949  0.565102
C 0.061742  0.351458  0.819058
C 0.815592  0.386164  0.740221
H 0.289931  0.950061  0.402568
H 0.485027  0.901329  0.072584
H 0.018713  0.941358  0.596010
H 0.289804  0.015991  0.221746
H 0.343734  0.653199  0.625062
H 0.028503  0.320584  0.089655
H 0.210756  0.843389  0.577670
H 0.425515  0.086186  0.125592
H 0.451332  0.958382  0.837292
H 0.197587  0.136935  0.381246
H 0.057747  0.700875  0.826735
H 0.333955  0.291129  0.114221
H 0.726805  0.547753  0.393535
H 0.554770  0.617493  0.102545
H 0.808626  0.657527  0.574111
H 0.634787  0.439855  0.158095
H 0.633758  0.904627  0.667444
H 0.935200  0.164615  0.116596
H 0.946234  0.785430  0.714993
H 0.750592  0.166797  0.202740
H 0.534694  0.593283  0.793238
H 0.890534  0.495258  0.379044
H 0.965851  0.561272  0.690490
H 0.799444  0.607193  0.211716
H 0.676824  0.082862  0.762659
H 0.681115  0.222651  0.770697
H 0.680237  0.162576  0.611981
H 0.504924  0.272330  0.905787
H 0.547482  0.143720  0.930453
H 0.402341  0.167348  0.911056
H 0.853671  0.040768  0.827658
H 0.861410  0.165349  0.912369
H 0.892358  0.160896  0.742888
H 0.224162  0.101303  0.815650
H 0.145491  0.029505  0.696572
H 0.144709  0.170562  0.699043
H 0.356527  0.744970  0.419130
H 0.329328  0.721432  0.248876
H 0.393622  0.618850  0.347702
H 0.023020  0.686344  0.330880
H 0.120092  0.790449  0.299998
H 0.078536  0.761644  0.464143
H 0.249947  0.428384  0.285315
H 0.173196  0.325598  0.208580
H 0.112816  0.451413  0.264120
H 0.059539  0.596756  0.984283
H 0.129246  0.655568  0.126161
H 0.034160  0.562995  0.142906
H 0.524871  0.883123  0.496414
H 0.535942  0.812559  0.346919
H 0.504215  0.945981  0.338202
H 0.818335  0.776152  0.413746
H 0.763991  0.788310  0.247772
H 0.687394  0.731105  0.371629
H 0.925563  0.867584  0.303719
H 0.885657  0.006689  0.319741
H 0.013625  0.966151  0.265546
H 0.948640  0.875106  0.925379
H 0.927958  0.780342  0.059184
H 0.031525  0.868869  0.069740
H 0.460151  0.437257  0.877528
H 0.337059  0.499818  0.812546
H 0.339683  0.358193  0.841932
H 0.334581  0.278012  0.539346
H 0.252330  0.366856  0.624591
H 0.315931  0.412065  0.477228
H 0.112363  0.423003  0.815886
H 0.098007  0.299477  0.894364
H 0.060168  0.310928  0.725219
H 0.738938  0.395709  0.791160
H 0.826927  0.453714  0.674969
H 0.814945  0.313004  0.680514
N 0.325646  0.890972  0.721340
N 0.059816  0.164617  0.260242
N 0.207655  0.688051  0.737453
N 0.485939  0.355277  0.161198
N 0.785299  0.834358  0.707615
N 0.581892  0.138670  0.178813
N 0.673627  0.636686  0.692772
N 0.940329  0.372526  0.249910
Ni 0.277337  0.793433  0.864776
Ni 0.526328  0.248609  0.305024
Ni 0.729236  0.725507  0.834907
Ni 0.990511  0.266091  0.392976
O 0.110548  0.343651  0.430792
O 0.398880  0.711731  0.876270
O 0.398940  0.175591  0.317359
O 0.159391  0.875138  0.888514
O 0.488551  0.342710  0.413824
O 0.254157  0.702858  0.993656
O 0.011263  0.164895  0.519909
O 0.317796  0.893096  0.985860
O 0.650760  0.322716  0.336773
O 0.847564  0.642445  0.850644
O 0.866928  0.185540  0.394352
O 0.610064  0.807001  0.856577
O 0.953548  0.366640  0.517546
O 0.693567  0.625392  0.950541
O 0.548419  0.155267  0.433813
O 0.765001  0.806490  0.961234
P 0.506525  0.161839  0.715705
P 0.036577  0.090109  0.873621
P 0.203409  0.628664  0.384314
P 0.193141  0.472416  0.067661
P 0.693762  0.925276  0.390535
P 0.863913  0.961584  0.111836
P 0.438653  0.409699  0.660781
P 0.925459  0.384137  0.856853
