&CONTROL
   calculation = 'relax',
   prefix = 'NiPyC2_relax_sc211_ortho_functionalized_O-CH2-CH2-CH3_pbesol_relax_frozen_parent_atoms',
   pseudo_dir = './pseudo/',
   outdir = '/nfs/hpc/share/gantzlen'
   wf_collect = .FALSE.,
   nstep = 200,
/
&SYSTEM
   ibrav = 0,
   nat = 188,
   ntyp = 5.000000,
   tot_charge = 0.000000,
   ecutwfc = 100.000000,
   
   vdw_corr = 'grimme-d2',
   occupations = 'smearing',
   degauss = 0.200000,
   smearing = 'mv',
   nspin = 2 ,
   starting_magnetization(4) = 0.250000,
   tot_magnetization = 8.000000
/
&ELECTRONS
    electron_maxstep = 40.000000,
    scf_must_converge = .FALSE.,
    conv_thr = 5.D-6,
    mixing_mode = 'local-TF',
    diagonalization = 'david',
/
&IONS
   ion_dynamics = 'bfgs',
/
&CELL
   cell_dynamics = 'bfgs'
   cell_dofree = 'xyz'
/
ATOMIC_SPECIES
C    12.010700    C.pbesol-nc.UPF
H    1.007940    H.pbesol-n-nc.UPF
N    14.006700    N.pbesol-nc.UPF
Ni    58.693400    Ni.pbesol-n-nc.UPF
O    15.999400    O.pbesol-nc.UPF
K_POINTS {gamma}
CELL_PARAMETERS {angstrom}
     12.505600   0.000000   0.000000
     0.000000   12.523400   0.000000
     -0.227594   0.000000   10.274279
ATOMIC_POSITIONS {crystal}
C 0.288212  0.970050  0.521984 0 0 0
C 0.038379  0.031106  0.022308 0 0 0
C 0.390634  0.011770  0.546492 0 0 0
C 0.140244  0.987744  0.046146 0 0 0
C 0.451915  0.970202  0.650371 0 0 0
C 0.202520  0.028353  0.149893 0 0 0
C 0.208181  0.529704  0.526384 0 0 0
C 0.458545  0.471409  0.027904 0 0 0
C 0.245137  0.613331  0.606435 0 0 0
C 0.496819  0.388677  0.108617 0 0 0
C 0.249476  0.889206  0.603203 0 0 0
C 0.001069  0.112232  0.104247 0 0 0
C 0.407977  0.889383  0.727552 0 0 0
C 0.159935  0.109547  0.227812 0 0 0
C 0.088862  0.608983  0.727352 0 0 0
C 0.340890  0.391633  0.229394 0 0 0
C 0.046925  0.525079  0.651312 0 0 0
C 0.297658  0.474711  0.152754 0 0 0
C 0.108164  0.484270  0.550116 0 0 0
C 0.357832  0.515656  0.050638 0 0 0
C 0.433310  0.099319  0.466621 0 0 0
C 0.181517  0.899720  0.965672 0 0 0
C 0.067378  0.394474  0.470676 0 0 0
C 0.316043  0.604172  0.969107 0 0 0
C 0.788212  0.970050  0.521984 0 0 0
C 0.538379  0.031106  0.022308 0 0 0
C 0.890634  0.011770  0.546492 0 0 0
C 0.640244  0.987744  0.046146 0 0 0
C 0.951915  0.970202  0.650371 0 0 0
C 0.702520  0.028353  0.149893 0 0 0
C 0.708182  0.529704  0.526384 0 0 0
C 0.958546  0.471409  0.027904 0 0 0
C 0.745137  0.613331  0.606435 0 0 0
C 0.996819  0.388677  0.108617 0 0 0
C 0.749476  0.889206  0.603203 0 0 0
C 0.501069  0.112232  0.104247 0 0 0
C 0.907977  0.889383  0.727552 0 0 0
C 0.659934  0.109547  0.227812 0 0 0
C 0.588862  0.608983  0.727352 0 0 0
C 0.840890  0.391633  0.229394 0 0 0
C 0.546925  0.525079  0.651312 0 0 0
C 0.797658  0.474711  0.152754 0 0 0
C 0.608164  0.484270  0.550116 0 0 0
C 0.857832  0.515656  0.050638 0 0 0
C 0.933310  0.099319  0.466621 0 0 0
C 0.681517  0.899720  0.965672 0 0 0
C 0.567377  0.394474  0.470676 0 0 0
C 0.816043  0.604172  0.969107 0 0 0
C 0.441921  0.770588  0.914912 1 1 1
C 0.533481  0.749492  0.012378 1 1 1
C 0.504130  0.662375  0.109057 1 1 1
C 0.850766  0.233295  0.146379 1 1 1
C 0.740650  0.256496  0.085554 1 1 1
C 0.683175  0.344225  0.159684 1 1 1
C 0.392943  0.739254  0.648236 1 1 1
C 0.501123  0.764170  0.589102 1 1 1
C 0.557771  0.854920  0.661808 1 1 1
C 0.307526  0.271505  0.413785 1 1 1
C 0.217474  0.251842  0.508912 1 1 1
C 0.246357  0.162676  0.604582 1 1 1
C 0.941913  0.770603  0.914928 1 1 1
C 0.033476  0.749501  0.012387 1 1 1
C 0.004114  0.662406  0.109090 1 1 1
C 0.696326  0.227476  0.415327 1 1 1
C 0.788664  0.247288  0.512107 1 1 1
C 0.760881  0.334507  0.609373 1 1 1
C 0.553889  0.730057  0.910202 1 1 1
C 0.463332  0.749567  0.004667 1 1 1
C 0.491083  0.839633  0.099541 1 1 1
C 0.807526  0.271505  0.413785 1 1 1
C 0.717474  0.251842  0.508912 1 1 1
C 0.746357  0.162676  0.604582 1 1 1
H 0.237124  0.999575  0.443113 0 0 0
H 0.486538  0.002692  0.943499 0 0 0
H 0.032063  0.998805  0.673520 0 0 0
H 0.282340  0.998665  0.172602 0 0 0
H 0.258700  0.500895  0.449282 0 0 0
H 0.008641  0.500397  0.950548 0 0 0
H 0.074968  0.352851  0.095028 0 0 0
H 0.170154  0.855123  0.588560 0 0 0
H 0.422322  0.147732  0.089886 0 0 0
H 0.206239  0.143103  0.308797 0 0 0
H 0.043729  0.642944  0.806608 0 0 0
H 0.468672  0.493231  0.673502 0 0 0
H 0.218952  0.505201  0.175264 0 0 0
H 0.737124  0.999575  0.443113 0 0 0
H 0.986538  0.002692  0.943499 0 0 0
H 0.532062  0.998805  0.673520 0 0 0
H 0.782340  0.998665  0.172602 0 0 0
H 0.758700  0.500895  0.449282 0 0 0
H 0.508641  0.500397  0.950548 0 0 0
H 0.822641  0.650506  0.592635 0 0 0
H 0.574968  0.352851  0.095028 0 0 0
H 0.670154  0.855123  0.588560 0 0 0
H 0.968672  0.493231  0.673502 0 0 0
H 0.718952  0.505201  0.175264 0 0 0
H 0.369999  0.796661  0.968247 1 1 1
H 0.423630  0.695995  0.859990 1 1 1
H 0.605671  0.724210  0.959172 1 1 1
H 0.552413  0.824168  0.066670 1 1 1
H 0.486417  0.586405  0.057096 1 1 1
H 0.572111  0.648897  0.178448 1 1 1
H 0.433028  0.686605  0.164857 1 1 1
H 0.900223  0.307094  0.144163 1 1 1
H 0.841313  0.206896  0.248854 1 1 1
H 0.691387  0.182615  0.086782 1 1 1
H 0.749884  0.282112  0.982829 1 1 1
H 0.671586  0.319697  0.262296 1 1 1
H 0.603575  0.359237  0.113251 1 1 1
H 0.730226  0.419438  0.158092 1 1 1
H 0.405287  0.715229  0.751710 1 1 1
H 0.341436  0.811620  0.642710 1 1 1
H 0.489017  0.787410  0.485406 1 1 1
H 0.552419  0.691697  0.593644 1 1 1
H 0.508643  0.928777  0.656905 1 1 1
H 0.635968  0.871122  0.616651 1 1 1
H 0.572199  0.832832  0.765409 1 1 1
H 0.381353  0.294783  0.469151 1 1 1
H 0.322438  0.197123  0.357837 1 1 1
H 0.143405  0.229361  0.453684 1 1 1
H 0.201909  0.326334  0.564218 1 1 1
H 0.260715  0.086896  0.551558 1 1 1
H 0.179495  0.150298  0.672277 1 1 1
H 0.319363  0.184104  0.662362 1 1 1
H 0.923604  0.696006  0.860020 1 1 1
H 0.870000  0.796696  0.968265 1 1 1
H 0.052431  0.824180  0.066661 1 1 1
H 0.105656  0.724194  0.959176 1 1 1
H 0.933024  0.686663  0.164896 1 1 1
H 0.072098  0.648921  0.178474 1 1 1
H 0.986376  0.586433  0.057150 1 1 1
H 0.624423  0.202103  0.469181 1 1 1
H 0.678592  0.302404  0.360832 1 1 1
H 0.860826  0.271866  0.458377 1 1 1
H 0.807035  0.172271  0.565967 1 1 1
H 0.743758  0.410797  0.557840 1 1 1
H 0.829398  0.347039  0.678247 1 1 1
H 0.689834  0.310962  0.665692 1 1 1
H 0.568314  0.804186  0.853558 1 1 1
H 0.627743  0.707819  0.966167 1 1 1
H 0.448253  0.675320  0.060663 1 1 1
H 0.389244  0.771012  0.948845 1 1 1
H 0.564089  0.819246  0.157898 1 1 1
H 0.423875  0.851878  0.166766 1 1 1
H 0.504937  0.915173  0.045809 1 1 1
H 0.881353  0.294783  0.469151 1 1 1
H 0.822438  0.197123  0.357837 1 1 1
H 0.643405  0.229361  0.453684 1 1 1
H 0.701909  0.326334  0.564218 1 1 1
H 0.760715  0.086896  0.551558 1 1 1
H 0.679495  0.150298  0.672277 1 1 1
H 0.819363  0.184104  0.662362 1 1 1
N 0.308437  0.851253  0.704828 0 0 0
N 0.060729  0.148857  0.206052 0 0 0
N 0.186542  0.650310  0.705838 0 0 0
N 0.438810  0.350928  0.208041 0 0 0
N 0.808437  0.851253  0.704828 0 0 0
N 0.560729  0.148857  0.206052 0 0 0
N 0.686543  0.650310  0.705838 0 0 0
N 0.938810  0.350928  0.208041 0 0 0
Ni 0.247002  0.751486  0.836326 0 0 0
Ni 0.499972  0.247999  0.339178 0 0 0
Ni 0.747002  0.751486  0.836326 0 0 0
Ni 0.999972  0.247999  0.339178 0 0 0
O 0.122778  0.347689  0.382873 0 0 0
O 0.371208  0.650977  0.881292 0 0 0
O 0.377630  0.147507  0.377178 0 0 0
O 0.125098  0.852352  0.876261 0 0 0
O 0.473069  0.356160  0.482994 0 0 0
O 0.221137  0.641415  0.979877 0 0 0
O 0.028840  0.135158  0.481078 0 0 0
O 0.276686  0.862758  0.979399 0 0 0
O 0.622779  0.347689  0.382873 0 0 0
O 0.871208  0.650977  0.881292 0 0 0
O 0.877630  0.147507  0.377178 0 0 0
O 0.625098  0.852352  0.876261 0 0 0
O 0.973069  0.356160  0.482994 0 0 0
O 0.721137  0.641415  0.979877 0 0 0
O 0.528840  0.135158  0.481078 0 0 0
O 0.776686  0.862758  0.979399 0 0 0
O 0.471994  0.849774  0.829572 1 1 1
O 0.899702  0.153613  0.076291 1 1 1
O 0.344695  0.656866  0.579505 1 1 1
O 0.277934  0.352620  0.329290 1 1 1
O 0.971994  0.849775  0.829573 1 1 1
O 0.724987  0.148152  0.329426 1 1 1
O 0.525322  0.648105  0.826423 1 1 1
O 0.777934  0.352620  0.329290 1 1 1
