&CONTROL
   calculation = 'relax',
   prefix = 'NiPyC2_relax_sc211_meta_functionalized_CH2-CH3_pbesol_relax_frozen_parent_atoms',
   pseudo_dir = './pseudo/',
   outdir = '/nfs/hpc/share/gantzlen'
   wf_collect = .FALSE.,
   nstep = 200,
/
&SYSTEM
   ibrav = 0,
   nat = 156,
   ntyp = 5.000000,
   tot_charge = 0.000000,
   ecutwfc = 100.000000,
   
   vdw_corr = 'grimme-d2',
   occupations = 'smearing',
   degauss = 0.200000,
   smearing = 'mv',
   nspin = 2 ,
   starting_magnetization(4) = 0.250000,
   tot_magnetization = 8.000000
/
&ELECTRONS
    electron_maxstep = 40.000000,
    scf_must_converge = .FALSE.,
    conv_thr = 5.D-6,
    mixing_mode = 'local-TF',
    diagonalization = 'david',
/
&IONS
   ion_dynamics = 'bfgs',
/
&CELL
   cell_dynamics = 'bfgs'
   cell_dofree = 'xyz'
/
ATOMIC_SPECIES
C    12.010700    C.pbesol-nc.UPF
H    1.007940    H.pbesol-n-nc.UPF
N    14.006700    N.pbesol-nc.UPF
Ni    58.693400    Ni.pbesol-n-nc.UPF
O    15.999400    O.pbesol-nc.UPF
K_POINTS {gamma}
CELL_PARAMETERS {angstrom}
     12.505600   0.000000   0.000000
     0.000000   12.523400   0.000000
     -0.227594   0.000000   10.274279
ATOMIC_POSITIONS {crystal}
C 0.288212  0.970050  0.521984 0 0 0
C 0.038379  0.031106  0.022308 0 0 0
C 0.390634  0.011770  0.546492 0 0 0
C 0.140244  0.987744  0.046146 0 0 0
C 0.451915  0.970202  0.650371 0 0 0
C 0.202520  0.028353  0.149893 0 0 0
C 0.208181  0.529704  0.526384 0 0 0
C 0.458545  0.471409  0.027904 0 0 0
C 0.245137  0.613331  0.606435 0 0 0
C 0.496819  0.388677  0.108617 0 0 0
C 0.249476  0.889206  0.603203 0 0 0
C 0.001069  0.112232  0.104247 0 0 0
C 0.407977  0.889383  0.727552 0 0 0
C 0.159935  0.109547  0.227812 0 0 0
C 0.088862  0.608983  0.727352 0 0 0
C 0.340890  0.391633  0.229394 0 0 0
C 0.046925  0.525079  0.651312 0 0 0
C 0.297658  0.474711  0.152754 0 0 0
C 0.108164  0.484270  0.550116 0 0 0
C 0.357832  0.515656  0.050638 0 0 0
C 0.433310  0.099319  0.466621 0 0 0
C 0.181517  0.899720  0.965672 0 0 0
C 0.067378  0.394474  0.470676 0 0 0
C 0.316043  0.604172  0.969107 0 0 0
C 0.788212  0.970050  0.521984 0 0 0
C 0.538379  0.031106  0.022308 0 0 0
C 0.890634  0.011770  0.546492 0 0 0
C 0.640244  0.987744  0.046146 0 0 0
C 0.951915  0.970202  0.650371 0 0 0
C 0.702520  0.028353  0.149893 0 0 0
C 0.708182  0.529704  0.526384 0 0 0
C 0.958546  0.471409  0.027904 0 0 0
C 0.745137  0.613331  0.606435 0 0 0
C 0.996819  0.388677  0.108617 0 0 0
C 0.749476  0.889206  0.603203 0 0 0
C 0.501069  0.112232  0.104247 0 0 0
C 0.907977  0.889383  0.727552 0 0 0
C 0.659934  0.109547  0.227812 0 0 0
C 0.588862  0.608983  0.727352 0 0 0
C 0.840890  0.391633  0.229394 0 0 0
C 0.546925  0.525079  0.651312 0 0 0
C 0.797658  0.474711  0.152754 0 0 0
C 0.608164  0.484270  0.550116 0 0 0
C 0.857832  0.515656  0.050638 0 0 0
C 0.933310  0.099319  0.466621 0 0 0
C 0.681517  0.899720  0.965672 0 0 0
C 0.567377  0.394474  0.470676 0 0 0
C 0.816043  0.604172  0.969107 0 0 0
C 0.565679  0.011469  0.680842 1 1 1
C 0.625498  0.960440  0.796581 1 1 1
C 0.967112  0.991263  0.908099 1 1 1
C 0.857291  0.043996  0.890724 1 1 1
C 0.277550  0.489442  0.414548 1 1 1
C 0.385476  0.544734  0.397258 1 1 1
C 0.527707  0.512149  0.915880 1 1 1
C 0.636495  0.458364  0.899435 1 1 1
C 0.065679  0.011469  0.680842 1 1 1
C 0.125498  0.960440  0.796581 1 1 1
C 0.467111  0.991262  0.908100 1 1 1
C 0.357294  0.044001  0.890719 1 1 1
C 0.777551  0.489442  0.414549 1 1 1
C 0.885477  0.544733  0.397259 1 1 1
C 0.685932  0.519109  0.181778 1 1 1
C 0.627242  0.468578  0.295513 1 1 1
H 0.237124  0.999575  0.443113 0 0 0
H 0.282340  0.998665  0.172602 0 0 0
H 0.008641  0.500397  0.950548 0 0 0
H 0.322641  0.650506  0.592635 0 0 0
H 0.074968  0.352851  0.095028 0 0 0
H 0.170154  0.855123  0.588560 0 0 0
H 0.422322  0.147732  0.089886 0 0 0
H 0.453370  0.855173  0.808761 0 0 0
H 0.206239  0.143103  0.308797 0 0 0
H 0.043729  0.642944  0.806608 0 0 0
H 0.296378  0.357526  0.309051 0 0 0
H 0.468672  0.493231  0.673502 0 0 0
H 0.218952  0.505201  0.175264 0 0 0
H 0.737124  0.999575  0.443113 0 0 0
H 0.782340  0.998665  0.172602 0 0 0
H 0.822641  0.650506  0.592635 0 0 0
H 0.574968  0.352851  0.095028 0 0 0
H 0.670154  0.855123  0.588560 0 0 0
H 0.922322  0.147732  0.089886 0 0 0
H 0.953370  0.855173  0.808761 0 0 0
H 0.706240  0.143103  0.308797 0 0 0
H 0.543729  0.642944  0.806608 0 0 0
H 0.796378  0.357526  0.309051 0 0 0
H 0.968672  0.493231  0.673502 0 0 0
H 0.560937  0.098456  0.701247 1 1 1
H 0.615208  0.998004  0.593907 1 1 1
H 0.581800  0.974217  0.888006 1 1 1
H 0.705962  0.997303  0.807612 1 1 1
H 0.636243  0.873445  0.780326 1 1 1
H 0.952774  0.904430  0.921508 1 1 1
H 0.010424  0.004419  0.816218 1 1 1
H 0.808199  0.030631  0.978007 1 1 1
H 0.814572  0.008075  0.805537 1 1 1
H 0.866031  0.130939  0.872382 1 1 1
H 0.231546  0.499527  0.321612 1 1 1
H 0.294587  0.403329  0.430815 1 1 1
H 0.373905  0.631005  0.376140 1 1 1
H 0.426994  0.508225  0.313828 1 1 1
H 0.437148  0.534501  0.485691 1 1 1
H 0.482096  0.500914  0.822862 1 1 1
H 0.543420  0.598585  0.931516 1 1 1
H 0.626264  0.371826  0.878970 1 1 1
H 0.677684  0.495053  0.815874 1 1 1
H 0.687785  0.469807  0.987970 1 1 1
H 0.060937  0.098456  0.701247 1 1 1
H 0.115208  0.998004  0.593907 1 1 1
H 0.081800  0.974217  0.888006 1 1 1
H 0.205962  0.997303  0.807612 1 1 1
H 0.136243  0.873445  0.780326 1 1 1
H 0.510426  0.004416  0.816219 1 1 1
H 0.452770  0.904430  0.921510 1 1 1
H 0.366038  0.130943  0.872375 1 1 1
H 0.314575  0.008080  0.805532 1 1 1
H 0.308198  0.030639  0.978001 1 1 1
H 0.731548  0.499526  0.321612 1 1 1
H 0.794588  0.403328  0.430817 1 1 1
H 0.873907  0.631004  0.376141 1 1 1
H 0.926995  0.508224  0.313830 1 1 1
H 0.937149  0.534500  0.485693 1 1 1
H 0.693847  0.605658  0.203791 1 1 1
H 0.633972  0.508215  0.093664 1 1 1
H 0.673487  0.479911  0.388014 1 1 1
H 0.548200  0.507771  0.305670 1 1 1
H 0.613420  0.382157  0.277537 1 1 1
N 0.308437  0.851253  0.704828 0 0 0
N 0.060729  0.148857  0.206052 0 0 0
N 0.186542  0.650310  0.705838 0 0 0
N 0.438810  0.350928  0.208041 0 0 0
N 0.808437  0.851253  0.704828 0 0 0
N 0.560729  0.148857  0.206052 0 0 0
N 0.686543  0.650310  0.705838 0 0 0
N 0.938810  0.350928  0.208041 0 0 0
Ni 0.247002  0.751486  0.836326 0 0 0
Ni 0.499972  0.247999  0.339178 0 0 0
Ni 0.747002  0.751486  0.836326 0 0 0
Ni 0.999972  0.247999  0.339178 0 0 0
O 0.122778  0.347689  0.382873 0 0 0
O 0.371208  0.650977  0.881292 0 0 0
O 0.377630  0.147507  0.377178 0 0 0
O 0.125098  0.852352  0.876261 0 0 0
O 0.473069  0.356160  0.482994 0 0 0
O 0.221137  0.641415  0.979877 0 0 0
O 0.028840  0.135158  0.481078 0 0 0
O 0.276686  0.862758  0.979399 0 0 0
O 0.622779  0.347689  0.382873 0 0 0
O 0.871208  0.650977  0.881292 0 0 0
O 0.877630  0.147507  0.377178 0 0 0
O 0.625098  0.852352  0.876261 0 0 0
O 0.973069  0.356160  0.482994 0 0 0
O 0.721137  0.641415  0.979877 0 0 0
O 0.528840  0.135158  0.481078 0 0 0
O 0.776686  0.862758  0.979399 0 0 0
