&CONTROL
   calculation = 'relax',
   prefix = 'NiPyC2_relax_sc211_meta_functionalized_CH2-NH2_pbesol_relax_frozen_parent_atoms',
   pseudo_dir = './pseudo/',
   outdir = '/nfs/hpc/share/gantzlen'
   wf_collect = .FALSE.,
   nstep = 200,
/
&SYSTEM
   ibrav = 0,
   nat = 148,
   ntyp = 5.000000,
   tot_charge = 0.000000,
   ecutwfc = 100.000000,
   
   vdw_corr = 'grimme-d2',
   occupations = 'smearing',
   degauss = 0.200000,
   smearing = 'mv',
   nspin = 2 ,
   starting_magnetization(4) = 0.250000,
   tot_magnetization = 8.000000
/
&ELECTRONS
    electron_maxstep = 40.000000,
    scf_must_converge = .FALSE.,
    conv_thr = 5.D-6,
    mixing_mode = 'local-TF',
    diagonalization = 'david',
/
&IONS
   ion_dynamics = 'bfgs',
/
&CELL
   cell_dynamics = 'bfgs'
   cell_dofree = 'xyz'
/
ATOMIC_SPECIES
C    12.010700    C.pbesol-nc.UPF
H    1.007940    H.pbesol-n-nc.UPF
N    14.006700    N.pbesol-nc.UPF
Ni    58.693400    Ni.pbesol-n-nc.UPF
O    15.999400    O.pbesol-nc.UPF
K_POINTS {gamma}
CELL_PARAMETERS {angstrom}
     12.505600   0.000000   0.000000
     0.000000   12.523400   0.000000
     -0.227594   0.000000   10.274279
ATOMIC_POSITIONS {crystal}
C 0.288212  0.970050  0.521984 0 0 0
C 0.038379  0.031106  0.022308 0 0 0
C 0.390634  0.011770  0.546492 0 0 0
C 0.140244  0.987744  0.046146 0 0 0
C 0.451915  0.970202  0.650371 0 0 0
C 0.202520  0.028353  0.149893 0 0 0
C 0.208181  0.529704  0.526384 0 0 0
C 0.458545  0.471409  0.027904 0 0 0
C 0.245137  0.613331  0.606435 0 0 0
C 0.496819  0.388677  0.108617 0 0 0
C 0.249476  0.889206  0.603203 0 0 0
C 0.001069  0.112232  0.104247 0 0 0
C 0.407977  0.889383  0.727552 0 0 0
C 0.159935  0.109547  0.227812 0 0 0
C 0.088862  0.608983  0.727352 0 0 0
C 0.340890  0.391633  0.229394 0 0 0
C 0.046925  0.525079  0.651312 0 0 0
C 0.297658  0.474711  0.152754 0 0 0
C 0.108164  0.484270  0.550116 0 0 0
C 0.357832  0.515656  0.050638 0 0 0
C 0.433310  0.099319  0.466621 0 0 0
C 0.181517  0.899720  0.965672 0 0 0
C 0.067378  0.394474  0.470676 0 0 0
C 0.316043  0.604172  0.969107 0 0 0
C 0.788212  0.970050  0.521984 0 0 0
C 0.538379  0.031106  0.022308 0 0 0
C 0.890634  0.011770  0.546492 0 0 0
C 0.640244  0.987744  0.046146 0 0 0
C 0.951915  0.970202  0.650371 0 0 0
C 0.702520  0.028353  0.149893 0 0 0
C 0.708182  0.529704  0.526384 0 0 0
C 0.958546  0.471409  0.027904 0 0 0
C 0.745137  0.613331  0.606435 0 0 0
C 0.996819  0.388677  0.108617 0 0 0
C 0.749476  0.889206  0.603203 0 0 0
C 0.501069  0.112232  0.104247 0 0 0
C 0.907977  0.889383  0.727552 0 0 0
C 0.659934  0.109547  0.227812 0 0 0
C 0.588862  0.608983  0.727352 0 0 0
C 0.840890  0.391633  0.229394 0 0 0
C 0.546925  0.525079  0.651312 0 0 0
C 0.797658  0.474711  0.152754 0 0 0
C 0.608164  0.484270  0.550116 0 0 0
C 0.857832  0.515656  0.050638 0 0 0
C 0.933310  0.099319  0.466621 0 0 0
C 0.681517  0.899720  0.965672 0 0 0
C 0.567377  0.394474  0.470676 0 0 0
C 0.816043  0.604172  0.969107 0 0 0
C 0.565570  0.010576  0.681359 1 1 1
C 0.315555  0.986091  0.180391 1 1 1
C 0.935647  0.480511  0.680306 1 1 1
C 0.186025  0.518207  0.182282 1 1 1
C 0.717279  0.010977  0.408545 1 1 1
C 0.815555  0.986091  0.180391 1 1 1
C 0.435911  0.480091  0.680793 1 1 1
C 0.686286  0.518633  0.182763 1 1 1
H 0.237124  0.999575  0.443113 0 0 0
H 0.486538  0.002692  0.943499 0 0 0
H 0.032063  0.998805  0.673520 0 0 0
H 0.258700  0.500895  0.449282 0 0 0
H 0.008641  0.500397  0.950548 0 0 0
H 0.322641  0.650506  0.592635 0 0 0
H 0.074968  0.352851  0.095028 0 0 0
H 0.170154  0.855123  0.588560 0 0 0
H 0.422322  0.147732  0.089886 0 0 0
H 0.453370  0.855173  0.808761 0 0 0
H 0.206239  0.143103  0.308797 0 0 0
H 0.043729  0.642944  0.806608 0 0 0
H 0.296378  0.357526  0.309051 0 0 0
H 0.986538  0.002692  0.943499 0 0 0
H 0.758700  0.500895  0.449282 0 0 0
H 0.508641  0.500397  0.950548 0 0 0
H 0.822641  0.650506  0.592635 0 0 0
H 0.574968  0.352851  0.095028 0 0 0
H 0.670154  0.855123  0.588560 0 0 0
H 0.922322  0.147732  0.089886 0 0 0
H 0.953370  0.855173  0.808761 0 0 0
H 0.706240  0.143103  0.308797 0 0 0
H 0.543729  0.642944  0.806608 0 0 0
H 0.796378  0.357526  0.309051 0 0 0
H 0.562815  0.097999  0.700135 1 1 1
H 0.615686  0.994798  0.595476 1 1 1
H 0.576696  0.982649  0.878281 1 1 1
H 0.694995  0.986968  0.803803 1 1 1
H 0.365829  0.996952  0.093427 1 1 1
H 0.309484  0.899622  0.203446 1 1 1
H 0.385536  0.118198  0.264959 1 1 1
H 0.442371  0.001553  0.308760 1 1 1
H 0.942422  0.393639  0.701500 1 1 1
H 0.883373  0.492614  0.592672 1 1 1
H 0.926846  0.511493  0.876185 1 1 1
H 0.807483  0.500859  0.798688 1 1 1
H 0.191930  0.605272  0.202636 1 1 1
H 0.133430  0.505006  0.095168 1 1 1
H 0.178624  0.488297  0.378531 1 1 1
H 0.058754  0.497149  0.301888 1 1 1
H 0.760006  0.999771  0.315741 1 1 1
H 0.702183  0.097446  0.424141 1 1 1
H 0.626357  0.877840  0.368101 1 1 1
H 0.568999  0.993700  0.322178 1 1 1
H 0.865829  0.996954  0.093427 1 1 1
H 0.809485  0.899623  0.203447 1 1 1
H 0.885536  0.118199  0.264960 1 1 1
H 0.942370  0.001555  0.308760 1 1 1
H 0.383384  0.487627  0.592497 1 1 1
H 0.445097  0.394351  0.706633 1 1 1
H 0.363854  0.611774  0.759883 1 1 1
H 0.311519  0.494434  0.806140 1 1 1
H 0.633383  0.509992  0.094948 1 1 1
H 0.694640  0.604620  0.207755 1 1 1
H 0.616157  0.386636  0.263631 1 1 1
H 0.562756  0.503662  0.309250 1 1 1
N 0.308437  0.851253  0.704828 0 0 0
N 0.060729  0.148857  0.206052 0 0 0
N 0.186542  0.650310  0.705838 0 0 0
N 0.438810  0.350928  0.208041 0 0 0
N 0.808437  0.851253  0.704828 0 0 0
N 0.560729  0.148857  0.206052 0 0 0
N 0.686543  0.650310  0.705838 0 0 0
N 0.938810  0.350928  0.208041 0 0 0
N 0.616392  0.959058  0.794434 1 1 1
N 0.368882  0.039172  0.290682 1 1 1
N 0.884692  0.531875  0.790654 1 1 1
N 0.136253  0.466941  0.293514 1 1 1
N 0.613858  0.956983  0.396691 1 1 1
N 0.868881  0.039173  0.290682 1 1 1
N 0.383457  0.533842  0.788372 1 1 1
N 0.635027  0.464947  0.291260 1 1 1
Ni 0.247002  0.751486  0.836326 0 0 0
Ni 0.499972  0.247999  0.339178 0 0 0
Ni 0.747002  0.751486  0.836326 0 0 0
Ni 0.999972  0.247999  0.339178 0 0 0
O 0.122778  0.347689  0.382873 0 0 0
O 0.371208  0.650977  0.881292 0 0 0
O 0.377630  0.147507  0.377178 0 0 0
O 0.125098  0.852352  0.876261 0 0 0
O 0.473069  0.356160  0.482994 0 0 0
O 0.221137  0.641415  0.979877 0 0 0
O 0.028840  0.135158  0.481078 0 0 0
O 0.276686  0.862758  0.979399 0 0 0
O 0.622779  0.347689  0.382873 0 0 0
O 0.871208  0.650977  0.881292 0 0 0
O 0.877630  0.147507  0.377178 0 0 0
O 0.625098  0.852352  0.876261 0 0 0
O 0.973069  0.356160  0.482994 0 0 0
O 0.721137  0.641415  0.979877 0 0 0
O 0.528840  0.135158  0.481078 0 0 0
O 0.776686  0.862758  0.979399 0 0 0
