&CONTROL
   calculation = 'relax',
   prefix = 'NiPyC2_relax_sc211_meta_functionalized_CH2-CH2-CH3_pbesol_relax_frozen_parent_atoms_Round2',
   pseudo_dir = './pseudo/',
   outdir = '/nfs/hpc/share/gantzlen'
   wf_collect = .FALSE.,
   nstep = 200,
/
&SYSTEM
   ibrav = 0,
   nat = 180,
   ntyp = 5.000000,
   tot_charge = 0.000000,
   ecutwfc = 100.000000,
   
   vdw_corr = 'grimme-d2',
   occupations = 'smearing',
   degauss = 0.200000,
   smearing = 'mv',
   nspin = 2 ,
   starting_magnetization(4) = 0.250000,
   tot_magnetization = 8.000000
/
&ELECTRONS
    electron_maxstep = 90.000000,
    scf_must_converge = .TRUE.,
    conv_thr = 1.D-6,
    mixing_mode = 'local-TF',
    diagonalization = 'david',
/
&IONS
   ion_dynamics = 'bfgs',
/
&CELL
   cell_dynamics = 'bfgs'
   cell_dofree = 'xyz'
/
ATOMIC_SPECIES
C    12.010700    C.pbesol-nc.UPF
H    1.007940    H.pbesol-n-nc.UPF
N    14.006700    N.pbesol-nc.UPF
Ni    58.693400    Ni.pbesol-n-nc.UPF
O    15.999400    O.pbesol-nc.UPF
K_POINTS {gamma}
CELL_PARAMETERS {angstrom}
     12.505617   0.000000   0.000000
     0.000000   12.523412   0.000000
     -0.227590   0.000000   10.274290
ATOMIC_POSITIONS {crystal}
C 0.288212  0.970050  0.521984
C 0.038379  0.031106  0.022308
C 0.390634  0.011770  0.546492
C 0.140244  0.987744  0.046146
C 0.451915  0.970202  0.650371
C 0.202520  0.028353  0.149893
C 0.208181  0.529704  0.526384
C 0.458545  0.471409  0.027904
C 0.245137  0.613331  0.606435
C 0.496819  0.388677  0.108617
C 0.249476  0.889206  0.603203
C 0.001069  0.112232  0.104247
C 0.407977  0.889383  0.727552
C 0.159935  0.109547  0.227812
C 0.088862  0.608983  0.727352
C 0.340890  0.391633  0.229394
C 0.046925  0.525079  0.651312
C 0.297658  0.474711  0.152754
C 0.108164  0.484270  0.550116
C 0.357832  0.515656  0.050638
C 0.433310  0.099319  0.466621
C 0.181517  0.899720  0.965672
C 0.067378  0.394474  0.470676
C 0.316043  0.604172  0.969107
C 0.788212  0.970050  0.521984
C 0.538379  0.031106  0.022308
C 0.890634  0.011770  0.546492
C 0.640244  0.987744  0.046146
C 0.951915  0.970202  0.650371
C 0.702520  0.028353  0.149893
C 0.708182  0.529704  0.526384
C 0.958546  0.471409  0.027904
C 0.745137  0.613331  0.606435
C 0.996819  0.388677  0.108617
C 0.749476  0.889206  0.603203
C 0.501069  0.112232  0.104247
C 0.907977  0.889383  0.727552
C 0.659934  0.109547  0.227812
C 0.588862  0.608983  0.727352
C 0.840890  0.391633  0.229394
C 0.546925  0.525079  0.651312
C 0.797658  0.474711  0.152754
C 0.608164  0.484270  0.550116
C 0.857832  0.515656  0.050638
C 0.933310  0.099319  0.466621
C 0.681517  0.899720  0.965672
C 0.567377  0.394474  0.470676
C 0.816043  0.604172  0.969107
C 0.529582  0.048139  0.716505
C 0.649009  0.053585  0.745663
C 0.723056  0.144109  0.702069
C 0.990802  0.049308  0.889772
C 0.872992  0.084493  0.870541
C 0.836330  0.133313  0.746936
C 0.979977  0.443543  0.720682
C 0.859600  0.447646  0.720284
C 0.797725  0.382267  0.813427
C 0.245983  0.566264  0.224643
C 0.126934  0.570506  0.219750
C 0.066651  0.643688  0.310007
C 0.748466  0.908867  0.386334
C 0.629514  0.877797  0.393828
C 0.547809  0.890339  0.286110
C 0.449534  0.013078  0.931078
C 0.363291  0.096980  0.911788
C 0.282012  0.094841  0.802893
C 0.796337  0.514968  0.437474
C 0.880629  0.602895  0.430089
C 0.961585  0.583349  0.327882
C 0.724076  0.551117  0.217156
C 0.607268  0.565722  0.239723
C 0.555923  0.654694  0.160093
H 0.237124  0.999575  0.443113
H 0.032063  0.998805  0.673520
H 0.282340  0.998665  0.172602
H 0.258700  0.500895  0.449282
H 0.008641  0.500397  0.950548
H 0.322641  0.650506  0.592635
H 0.074968  0.352851  0.095028
H 0.170154  0.855123  0.588560
H 0.422322  0.147732  0.089886
H 0.453370  0.855173  0.808761
H 0.206239  0.143103  0.308797
H 0.043729  0.642944  0.806608
H 0.296378  0.357526  0.309051
H 0.468672  0.493231  0.673502
H 0.782340  0.998665  0.172602
H 0.508641  0.500397  0.950548
H 0.822641  0.650506  0.592635
H 0.574968  0.352851  0.095028
H 0.670154  0.855123  0.588560
H 0.922322  0.147732  0.089886
H 0.953370  0.855173  0.808761
H 0.706240  0.143103  0.308797
H 0.543729  0.642944  0.806608
H 0.796378  0.357526  0.309051
H 0.491164  0.127255  0.715932
H 0.571619  0.101649  0.552503
H 0.681526  0.977170  0.716955
H 0.657072  0.056571  0.852370
H 0.728111  0.034248  0.510084
H 0.826050  0.902117  0.038235
H 0.695569  0.219832  0.745849
H 0.043111  0.109637  0.844727
H 0.011587  0.977555  0.838044
H 0.816324  0.023415  0.900134
H 0.856092  0.152263  0.937349
H 0.758253  0.878904  0.781976
H 0.721731  0.162829  0.597150
H 0.893946  0.183253  0.696652
H 0.009761  0.443639  0.821476
H 0.001698  0.363835  0.685073
H 0.835318  0.422880  0.621402
H 0.836227  0.532325  0.729237
H 0.716604  0.368089  0.774527
H 0.786112  0.421715  0.907526
H 0.836801  0.305579  0.834124
H 0.278225  0.642002  0.189101
H 0.274412  0.562533  0.325553
H 0.102394  0.486978  0.234111
H 0.106946  0.592508  0.117050
H 0.108005  0.655614  0.403700
H 0.005216  0.508216  0.378697
H 0.013638  0.532735  0.088147
H 0.763939  0.971334  0.317315
H 0.801300  0.840820  0.368799
H 0.626834  0.793273  0.424886
H 0.593751  0.923674  0.474241
H 0.574741  0.863298  0.190950
H 0.476718  0.842875  0.307816
H 0.520549  0.972805  0.274869
H 0.501075  0.018898  0.827257
H 0.417603  0.932031  0.932808
H 0.315166  0.091682  0.001101
H 0.401600  0.176359  0.912188
H 0.240917  0.018292  0.792599
H 0.221415  0.156214  0.819843
H 0.316292  0.114975  0.708566
H 0.749105  0.518356  0.333115
H 0.832338  0.435860  0.437471
H 0.928161  0.605844  0.521553
H 0.844513  0.681542  0.412891
H 0.964096  0.489612  0.297764
H 0.049652  0.721852  0.266498
H 0.922755  0.581597  0.229713
H 0.670060  0.616012  0.046107
H 0.762743  0.630417  0.218375
H 0.601861  0.590986  0.342392
H 0.565316  0.489668  0.233174
H 0.605880  0.726231  0.166209
H 0.477859  0.674894  0.198175
H 0.540337  0.636593  0.056787
N 0.308437  0.851253  0.704828
N 0.060729  0.148857  0.206052
N 0.186542  0.650310  0.705838
N 0.438810  0.350928  0.208041
N 0.808437  0.851253  0.704828
N 0.560729  0.148857  0.206052
N 0.686543  0.650310  0.705838
N 0.938810  0.350928  0.208041
Ni 0.247002  0.751486  0.836326
Ni 0.499972  0.247999  0.339178
Ni 0.747002  0.751486  0.836326
Ni 0.999972  0.247999  0.339178
O 0.122778  0.347689  0.382873
O 0.371208  0.650977  0.881292
O 0.377630  0.147507  0.377178
O 0.125098  0.852352  0.876261
O 0.473069  0.356160  0.482994
O 0.221137  0.641415  0.979877
O 0.028840  0.135158  0.481078
O 0.276686  0.862758  0.979399
O 0.622779  0.347689  0.382873
O 0.871208  0.650977  0.881292
O 0.877630  0.147507  0.377178
O 0.625098  0.852352  0.876261
O 0.973069  0.356160  0.482994
O 0.721137  0.641415  0.979877
O 0.528840  0.135158  0.481078
O 0.776686  0.862758  0.979399
