&CONTROL
   calculation = 'relax',
   prefix = 'NiPyC2_relax_sc211_meta_functionalized_O-CH2-CH3_pbesol_relax_frozen_parent_atoms_Round2',
   pseudo_dir = './pseudo/',
   outdir = '/nfs/hpc/share/gantzlen'
   wf_collect = .FALSE.,
   nstep = 200,
/
&SYSTEM
   ibrav = 0,
   nat = 164,
   ntyp = 5.000000,
   tot_charge = 0.000000,
   ecutwfc = 100.000000,
   
   vdw_corr = 'grimme-d2',
   occupations = 'smearing',
   degauss = 0.200000,
   smearing = 'mv',
   nspin = 2 ,
   starting_magnetization(4) = 0.250000,
   tot_magnetization = 8.000000
/
&ELECTRONS
    electron_maxstep = 90.000000,
    scf_must_converge = .TRUE.,
    conv_thr = 1.D-6,
    mixing_mode = 'local-TF',
    diagonalization = 'david',
/
&IONS
   ion_dynamics = 'bfgs',
/
&CELL
   cell_dynamics = 'bfgs'
   cell_dofree = 'xyz'
/
ATOMIC_SPECIES
C    12.010700    C.pbesol-nc.UPF
H    1.007940    H.pbesol-n-nc.UPF
N    14.006700    N.pbesol-nc.UPF
Ni    58.693400    Ni.pbesol-n-nc.UPF
O    15.999400    O.pbesol-nc.UPF
K_POINTS {gamma}
CELL_PARAMETERS {angstrom}
     12.505617   0.000000   0.000000
     0.000000   12.523412   0.000000
     -0.227590   0.000000   10.274290
ATOMIC_POSITIONS {crystal}
C 0.288212  0.970050  0.521984
C 0.038379  0.031106  0.022308
C 0.390634  0.011770  0.546492
C 0.140244  0.987744  0.046146
C 0.451915  0.970202  0.650371
C 0.202520  0.028353  0.149893
C 0.208181  0.529704  0.526384
C 0.458545  0.471409  0.027904
C 0.245137  0.613331  0.606435
C 0.496819  0.388677  0.108617
C 0.249476  0.889206  0.603203
C 0.001069  0.112232  0.104247
C 0.407977  0.889383  0.727552
C 0.159935  0.109547  0.227812
C 0.088862  0.608983  0.727352
C 0.340890  0.391633  0.229394
C 0.046925  0.525079  0.651312
C 0.297658  0.474711  0.152754
C 0.108164  0.484270  0.550116
C 0.357832  0.515656  0.050638
C 0.433310  0.099319  0.466621
C 0.181517  0.899720  0.965672
C 0.067378  0.394474  0.470676
C 0.316043  0.604172  0.969107
C 0.788212  0.970050  0.521984
C 0.538379  0.031106  0.022308
C 0.890634  0.011770  0.546492
C 0.640244  0.987744  0.046146
C 0.951915  0.970202  0.650371
C 0.702520  0.028353  0.149893
C 0.708182  0.529704  0.526384
C 0.958546  0.471409  0.027904
C 0.745137  0.613331  0.606435
C 0.996819  0.388677  0.108617
C 0.749476  0.889206  0.603203
C 0.501069  0.112232  0.104247
C 0.907977  0.889383  0.727552
C 0.659934  0.109547  0.227812
C 0.588862  0.608983  0.727352
C 0.840890  0.391633  0.229394
C 0.546925  0.525079  0.651312
C 0.797658  0.474711  0.152754
C 0.608164  0.484270  0.550116
C 0.857832  0.515656  0.050638
C 0.933310  0.099319  0.466621
C 0.681517  0.899720  0.965672
C 0.567377  0.394474  0.470676
C 0.816043  0.604172  0.969107
C 0.068160  0.820678  0.292928
C 0.982894  0.832005  0.210020
C 0.344152  0.913107  0.259213
C 0.419693  0.832800  0.206114
C 0.874908  0.452677  0.726488
C 0.840207  0.341823  0.685232
C 0.607515  0.437673  0.889123
C 0.590536  0.417301  0.747015
C 0.118073  0.053843  0.752134
C 0.119693  0.172879  0.738044
C 0.393751  0.071899  0.874583
C 0.404343  0.097093  0.735299
C 0.374295  0.456003  0.726419
C 0.338740  0.346064  0.684215
C 0.107503  0.437595  0.889946
C 0.091835  0.419480  0.747324
H 0.258700  0.500895  0.449282
H 0.322641  0.650506  0.592635
H 0.074968  0.352851  0.095028
H 0.170154  0.855123  0.588560
H 0.422322  0.147732  0.089886
H 0.453370  0.855173  0.808761
H 0.206239  0.143103  0.308797
H 0.043729  0.642944  0.806608
H 0.296378  0.357526  0.309051
H 0.218952  0.505201  0.175264
H 0.737124  0.999575  0.443113
H 0.986538  0.002692  0.943499
H 0.532062  0.998805  0.673520
H 0.782340  0.998665  0.172602
H 0.758700  0.500895  0.449282
H 0.822641  0.650506  0.592635
H 0.574968  0.352851  0.095028
H 0.670154  0.855123  0.588560
H 0.922322  0.147732  0.089886
H 0.953370  0.855173  0.808761
H 0.706240  0.143103  0.308797
H 0.543729  0.642944  0.806608
H 0.796378  0.357526  0.309051
H 0.718952  0.505201  0.175264
H 0.126242  0.756564  0.281234
H 0.082394  0.875752  0.373563
H 0.970125  0.780161  0.126016
H 0.923459  0.894074  0.224419
H 0.071424  0.082860  0.538609
H 0.385671  0.964311  0.330002
H 0.272502  0.879229  0.302242
H 0.482796  0.870212  0.149950
H 0.456783  0.792285  0.289549
H 0.379038  0.772473  0.146045
H 0.802748  0.500572  0.741183
H 0.917512  0.450359  0.819567
H 0.792365  0.343033  0.594949
H 0.794765  0.309360  0.766102
H 0.908123  0.289019  0.668525
H 0.686561  0.471478  0.908453
H 0.604437  0.358191  0.933426
H 0.666834  0.599276  0.024814
H 0.666941  0.388813  0.711434
H 0.528310  0.359865  0.721675
H 0.197729  0.017928  0.747795
H 0.081836  0.032192  0.842432
H 0.160123  0.200131  0.650827
H 0.163330  0.203538  0.823547
H 0.038067  0.203911  0.737153
H 0.319980  0.029342  0.896280
H 0.393136  0.150437  0.922509
H 0.314139  0.909756  0.051363
H 0.328990  0.126882  0.693590
H 0.472421  0.146569  0.709956
H 0.417363  0.452853  0.819023
H 0.302862  0.504609  0.742100
H 0.406647  0.295274  0.661843
H 0.295801  0.311613  0.765776
H 0.288345  0.347852  0.595916
H 0.101756  0.357299  0.931445
H 0.187215  0.468956  0.912142
H 0.030478  0.361780  0.721020
H 0.168325  0.391282  0.712176
H 0.164961  0.597123  0.018459
N 0.308437  0.851253  0.704828
N 0.060729  0.148857  0.206052
N 0.186542  0.650310  0.705838
N 0.438810  0.350928  0.208041
N 0.808437  0.851253  0.704828
N 0.560729  0.148857  0.206052
N 0.686543  0.650310  0.705838
N 0.938810  0.350928  0.208041
Ni 0.247002  0.751486  0.836326
Ni 0.499972  0.247999  0.339178
Ni 0.747002  0.751486  0.836326
Ni 0.999972  0.247999  0.339178
O 0.122778  0.347689  0.382873
O 0.371208  0.650977  0.881292
O 0.377630  0.147507  0.377178
O 0.125098  0.852352  0.876261
O 0.473069  0.356160  0.482994
O 0.221137  0.641415  0.979877
O 0.028840  0.135158  0.481078
O 0.276686  0.862758  0.979399
O 0.622779  0.347689  0.382873
O 0.871208  0.650977  0.881292
O 0.877630  0.147507  0.377178
O 0.625098  0.852352  0.876261
O 0.973069  0.356160  0.482994
O 0.721137  0.641415  0.979877
O 0.528840  0.135158  0.481078
O 0.776686  0.862758  0.979399
O 0.219675  0.013055  0.446942
O 0.305302  0.989336  0.156680
O 0.935759  0.514580  0.636920
O 0.528523  0.510701  0.942388
O 0.056626  0.000161  0.649431
O 0.483763  0.007050  0.915151
O 0.435778  0.515963  0.635978
O 0.029168  0.511318  0.943402
