&CONTROL
   calculation = 'relax',
   prefix = 'NiPyC2_relax_sc211_meta_functionalized_O-CH2-CH3_pbesol_relax_frozen_parent_atoms',
   pseudo_dir = './pseudo/',
   outdir = '/nfs/hpc/share/gantzlen'
   wf_collect = .FALSE.,
   nstep = 200,
/
&SYSTEM
   ibrav = 0,
   nat = 164,
   ntyp = 5.000000,
   tot_charge = 0.000000,
   ecutwfc = 100.000000,
   
   vdw_corr = 'grimme-d2',
   occupations = 'smearing',
   degauss = 0.200000,
   smearing = 'mv',
   nspin = 2 ,
   starting_magnetization(4) = 0.250000,
   tot_magnetization = 8.000000
/
&ELECTRONS
    electron_maxstep = 40.000000,
    scf_must_converge = .FALSE.,
    conv_thr = 5.D-6,
    mixing_mode = 'local-TF',
    diagonalization = 'david',
/
&IONS
   ion_dynamics = 'bfgs',
/
&CELL
   cell_dynamics = 'bfgs'
   cell_dofree = 'xyz'
/
ATOMIC_SPECIES
C    12.010700    C.pbesol-nc.UPF
H    1.007940    H.pbesol-n-nc.UPF
N    14.006700    N.pbesol-nc.UPF
Ni    58.693400    Ni.pbesol-n-nc.UPF
O    15.999400    O.pbesol-nc.UPF
K_POINTS {gamma}
CELL_PARAMETERS {angstrom}
     12.505600   0.000000   0.000000
     0.000000   12.523400   0.000000
     -0.227594   0.000000   10.274279
ATOMIC_POSITIONS {crystal}
C 0.288212  0.970050  0.521984 0 0 0
C 0.038379  0.031106  0.022308 0 0 0
C 0.390634  0.011770  0.546492 0 0 0
C 0.140244  0.987744  0.046146 0 0 0
C 0.451915  0.970202  0.650371 0 0 0
C 0.202520  0.028353  0.149893 0 0 0
C 0.208181  0.529704  0.526384 0 0 0
C 0.458545  0.471409  0.027904 0 0 0
C 0.245137  0.613331  0.606435 0 0 0
C 0.496819  0.388677  0.108617 0 0 0
C 0.249476  0.889206  0.603203 0 0 0
C 0.001069  0.112232  0.104247 0 0 0
C 0.407977  0.889383  0.727552 0 0 0
C 0.159935  0.109547  0.227812 0 0 0
C 0.088862  0.608983  0.727352 0 0 0
C 0.340890  0.391633  0.229394 0 0 0
C 0.046925  0.525079  0.651312 0 0 0
C 0.297658  0.474711  0.152754 0 0 0
C 0.108164  0.484270  0.550116 0 0 0
C 0.357832  0.515656  0.050638 0 0 0
C 0.433310  0.099319  0.466621 0 0 0
C 0.181517  0.899720  0.965672 0 0 0
C 0.067378  0.394474  0.470676 0 0 0
C 0.316043  0.604172  0.969107 0 0 0
C 0.788212  0.970050  0.521984 0 0 0
C 0.538379  0.031106  0.022308 0 0 0
C 0.890634  0.011770  0.546492 0 0 0
C 0.640244  0.987744  0.046146 0 0 0
C 0.951915  0.970202  0.650371 0 0 0
C 0.702520  0.028353  0.149893 0 0 0
C 0.708182  0.529704  0.526384 0 0 0
C 0.958546  0.471409  0.027904 0 0 0
C 0.745137  0.613331  0.606435 0 0 0
C 0.996819  0.388677  0.108617 0 0 0
C 0.749476  0.889206  0.603203 0 0 0
C 0.501069  0.112232  0.104247 0 0 0
C 0.907977  0.889383  0.727552 0 0 0
C 0.659934  0.109547  0.227812 0 0 0
C 0.588862  0.608983  0.727352 0 0 0
C 0.840890  0.391633  0.229394 0 0 0
C 0.546925  0.525079  0.651312 0 0 0
C 0.797658  0.474711  0.152754 0 0 0
C 0.608164  0.484270  0.550116 0 0 0
C 0.857832  0.515656  0.050638 0 0 0
C 0.933310  0.099319  0.466621 0 0 0
C 0.681517  0.899720  0.965672 0 0 0
C 0.567377  0.394474  0.470676 0 0 0
C 0.816043  0.604172  0.969107 0 0 0
C 0.125916  0.974742  0.384692 1 1 1
C 0.086510  0.037170  0.266114 1 1 1
C 0.372380  0.021422  0.272084 1 1 1
C 0.475684  0.957813  0.265245 1 1 1
C 0.880079  0.515613  0.770253 1 1 1
C 0.778560  0.448824  0.763311 1 1 1
C 0.618165  0.473234  0.894333 1 1 1
C 0.656828  0.535880  0.777666 1 1 1
C 0.121303  0.974757  0.773743 1 1 1
C 0.225416  0.037132  0.767887 1 1 1
C 0.375682  0.029426  0.885645 1 1 1
C 0.335018  0.968078  0.766823 1 1 1
C 0.380076  0.515618  0.770248 1 1 1
C 0.278560  0.448824  0.763310 1 1 1
C 0.118168  0.473239  0.894339 1 1 1
C 0.156830  0.535882  0.777669 1 1 1
H 0.258700  0.500895  0.449282 0 0 0
H 0.322641  0.650506  0.592635 0 0 0
H 0.074968  0.352851  0.095028 0 0 0
H 0.170154  0.855123  0.588560 0 0 0
H 0.422322  0.147732  0.089886 0 0 0
H 0.453370  0.855173  0.808761 0 0 0
H 0.206239  0.143103  0.308797 0 0 0
H 0.043729  0.642944  0.806608 0 0 0
H 0.296378  0.357526  0.309051 0 0 0
H 0.218952  0.505201  0.175264 0 0 0
H 0.737124  0.999575  0.443113 0 0 0
H 0.986538  0.002692  0.943499 0 0 0
H 0.532062  0.998805  0.673520 0 0 0
H 0.782340  0.998665  0.172602 0 0 0
H 0.758700  0.500895  0.449282 0 0 0
H 0.822641  0.650506  0.592635 0 0 0
H 0.574968  0.352851  0.095028 0 0 0
H 0.670154  0.855123  0.588560 0 0 0
H 0.922322  0.147732  0.089886 0 0 0
H 0.953370  0.855173  0.808761 0 0 0
H 0.706240  0.143103  0.308797 0 0 0
H 0.543729  0.642944  0.806608 0 0 0
H 0.796378  0.357526  0.309051 0 0 0
H 0.718952  0.505201  0.175264 0 0 0
H 0.126988  0.888288  0.360078 1 1 1
H 0.070451  0.988918  0.466000 1 1 1
H 0.140629  0.023687  0.183441 1 1 1
H 0.004687  0.010397  0.237422 1 1 1
H 0.084359  0.123843  0.288864 1 1 1
H 0.391051  0.107697  0.260801 1 1 1
H 0.335949  0.007405  0.368323 1 1 1
H 0.513683  0.971117  0.169921 1 1 1
H 0.531903  0.983724  0.344221 1 1 1
H 0.458841  0.871297  0.276935 1 1 1
H 0.858564  0.601030  0.755939 1 1 1
H 0.919069  0.504704  0.867644 1 1 1
H 0.738045  0.458992  0.666827 1 1 1
H 0.723333  0.474684  0.840358 1 1 1
H 0.798264  0.363120  0.778005 1 1 1
H 0.675683  0.484997  0.977162 1 1 1
H 0.614228  0.387122  0.868276 1 1 1
H 0.661813  0.622203  0.801890 1 1 1
H 0.737320  0.507215  0.750413 1 1 1
H 0.600647  0.524790  0.693517 1 1 1
H 0.138977  0.888293  0.762216 1 1 1
H 0.084594  0.988959  0.869780 1 1 1
H 0.263698  0.023622  0.672780 1 1 1
H 0.280955  0.010336  0.847125 1 1 1
H 0.209571  0.123814  0.779837 1 1 1
H 0.320226  0.015757  0.967092 1 1 1
H 0.378004  0.115952  0.861577 1 1 1
H 0.331606  0.881357  0.789033 1 1 1
H 0.253542  0.996196  0.738629 1 1 1
H 0.389113  0.981079  0.684015 1 1 1
H 0.419065  0.504714  0.867642 1 1 1
H 0.358560  0.601032  0.755927 1 1 1
H 0.298265  0.363122  0.778013 1 1 1
H 0.223331  0.474688  0.840354 1 1 1
H 0.238046  0.458985  0.666824 1 1 1
H 0.114237  0.387125  0.868286 1 1 1
H 0.175684  0.485007  0.977168 1 1 1
H 0.100652  0.524785  0.693519 1 1 1
H 0.237324  0.507220  0.750419 1 1 1
H 0.161809  0.622206  0.801887 1 1 1
N 0.308437  0.851253  0.704828 0 0 0
N 0.060729  0.148857  0.206052 0 0 0
N 0.186542  0.650310  0.705838 0 0 0
N 0.438810  0.350928  0.208041 0 0 0
N 0.808437  0.851253  0.704828 0 0 0
N 0.560729  0.148857  0.206052 0 0 0
N 0.686543  0.650310  0.705838 0 0 0
N 0.938810  0.350928  0.208041 0 0 0
Ni 0.247002  0.751486  0.836326 0 0 0
Ni 0.499972  0.247999  0.339178 0 0 0
Ni 0.747002  0.751486  0.836326 0 0 0
Ni 0.999972  0.247999  0.339178 0 0 0
O 0.122778  0.347689  0.382873 0 0 0
O 0.371208  0.650977  0.881292 0 0 0
O 0.377630  0.147507  0.377178 0 0 0
O 0.125098  0.852352  0.876261 0 0 0
O 0.473069  0.356160  0.482994 0 0 0
O 0.221137  0.641415  0.979877 0 0 0
O 0.028840  0.135158  0.481078 0 0 0
O 0.276686  0.862758  0.979399 0 0 0
O 0.622779  0.347689  0.382873 0 0 0
O 0.871208  0.650977  0.881292 0 0 0
O 0.877630  0.147507  0.377178 0 0 0
O 0.625098  0.852352  0.876261 0 0 0
O 0.973069  0.356160  0.482994 0 0 0
O 0.721137  0.641415  0.979877 0 0 0
O 0.528840  0.135158  0.481078 0 0 0
O 0.776686  0.862758  0.979399 0 0 0
O 0.227703  0.008468  0.419800 1 1 1
O 0.302869  0.988766  0.173588 1 1 1
O 0.948362  0.483001  0.674162 1 1 1
O 0.518034  0.509319  0.927659 1 1 1
O 0.052646  0.008511  0.674928 1 1 1
O 0.477028  0.994030  0.920132 1 1 1
O 0.448362  0.483002  0.674161 1 1 1
O 0.018035  0.509320  0.927660 1 1 1
