&CONTROL
   calculation = 'relax',
   prefix = 'NiPyC2_relax_sc211_meta_functionalized_C-3CH3_pbesol_relax_frozen_parent_atoms_Round2',
   pseudo_dir = './pseudo/',
   outdir = '/nfs/hpc/share/gantzlen'
   wf_collect = .FALSE.,
   nstep = 200,
/
&SYSTEM
   ibrav = 0,
   nat = 204,
   ntyp = 5.000000,
   tot_charge = 0.000000,
   ecutwfc = 100.000000,
   
   vdw_corr = 'grimme-d2',
   occupations = 'smearing',
   degauss = 0.200000,
   smearing = 'mv',
   nspin = 2 ,
   starting_magnetization(4) = 0.250000,
   tot_magnetization = 8.000000
/
&ELECTRONS
    electron_maxstep = 90.000000,
    scf_must_converge = .TRUE.,
    conv_thr = 1.D-6,
    mixing_mode = 'local-TF',
    diagonalization = 'david',
/
&IONS
   ion_dynamics = 'bfgs',
/
&CELL
   cell_dynamics = 'bfgs'
   cell_dofree = 'xyz'
/
ATOMIC_SPECIES
C    12.010700    C.pbesol-nc.UPF
H    1.007940    H.pbesol-n-nc.UPF
N    14.006700    N.pbesol-nc.UPF
Ni    58.693400    Ni.pbesol-n-nc.UPF
O    15.999400    O.pbesol-nc.UPF
K_POINTS {gamma}
CELL_PARAMETERS {angstrom}
     12.505617   0.000000   0.000000
     0.000000   12.523412   0.000000
     -0.227590   0.000000   10.274290
ATOMIC_POSITIONS {crystal}
C 0.288212  0.970050  0.521984
C 0.038379  0.031106  0.022308
C 0.390634  0.011770  0.546492
C 0.140244  0.987744  0.046146
C 0.451915  0.970202  0.650371
C 0.202520  0.028353  0.149893
C 0.208181  0.529704  0.526384
C 0.458545  0.471409  0.027904
C 0.245137  0.613331  0.606435
C 0.496819  0.388677  0.108617
C 0.249476  0.889206  0.603203
C 0.001069  0.112232  0.104247
C 0.407977  0.889383  0.727552
C 0.159935  0.109547  0.227812
C 0.088862  0.608983  0.727352
C 0.340890  0.391633  0.229394
C 0.046925  0.525079  0.651312
C 0.297658  0.474711  0.152754
C 0.108164  0.484270  0.550116
C 0.357832  0.515656  0.050638
C 0.433310  0.099319  0.466621
C 0.181517  0.899720  0.965672
C 0.067378  0.394474  0.470676
C 0.316043  0.604172  0.969107
C 0.788212  0.970050  0.521984
C 0.538379  0.031106  0.022308
C 0.890634  0.011770  0.546492
C 0.640244  0.987744  0.046146
C 0.951915  0.970202  0.650371
C 0.702520  0.028353  0.149893
C 0.708182  0.529704  0.526384
C 0.958546  0.471409  0.027904
C 0.745137  0.613331  0.606435
C 0.996819  0.388677  0.108617
C 0.749476  0.889206  0.603203
C 0.501069  0.112232  0.104247
C 0.907977  0.889383  0.727552
C 0.659934  0.109547  0.227812
C 0.588862  0.608983  0.727352
C 0.840890  0.391633  0.229394
C 0.546925  0.525079  0.651312
C 0.797658  0.474711  0.152754
C 0.608164  0.484270  0.550116
C 0.857832  0.515656  0.050638
C 0.933310  0.099319  0.466621
C 0.681517  0.899720  0.965672
C 0.567377  0.394474  0.470676
C 0.816043  0.604172  0.969107
C 0.529319  0.072799  0.711106
C 0.593282  0.122863  0.829738
C 0.449801  0.171996  0.704708
C 0.642660  0.033026  0.650851
C 0.246974  0.939954  0.231696
C 0.356904  0.916483  0.263595
C 0.166650  0.860415  0.269739
C 0.361257  0.939042  0.981509
C 0.944437  0.449421  0.669675
C 0.890144  0.488834  0.783063
C 0.969659  0.324933  0.713737
C 0.896585  0.427817  0.537697
C 0.552400  0.527417  0.963456
C 0.642659  0.449930  0.941173
C 0.467969  0.482974  0.877526
C 0.546924  0.633952  0.034034
C 0.694942  0.051806  0.517507
C 0.568131  0.925019  0.387356
C 0.725286  0.170774  0.532778
C 0.648797  0.995356  0.404604
C 0.764501  0.932097  0.227949
C 0.879953  0.936641  0.260709
C 0.726622  0.819457  0.228373
C 0.865909  0.932195  0.979951
C 0.422017  0.521429  0.655475
C 0.390801  0.546914  0.799672
C 0.417796  0.592130  0.540606
C 0.354380  0.412452  0.655107
C 0.049963  0.536319  0.971525
C 0.144380  0.462567  0.951042
C 0.970930  0.476592  0.883584
C 0.042962  0.642354  0.041708
H 0.237124  0.999575  0.443113
H 0.486538  0.002692  0.943499
H 0.032063  0.998805  0.673520
H 0.258700  0.500895  0.449282
H 0.322641  0.650506  0.592635
H 0.074968  0.352851  0.095028
H 0.170154  0.855123  0.588560
H 0.422322  0.147732  0.089886
H 0.453370  0.855173  0.808761
H 0.206239  0.143103  0.308797
H 0.043729  0.642944  0.806608
H 0.296378  0.357526  0.309051
H 0.218952  0.505201  0.175264
H 0.986538  0.002692  0.943499
H 0.758700  0.500895  0.449282
H 0.822641  0.650506  0.592635
H 0.574968  0.352851  0.095028
H 0.670154  0.855123  0.588560
H 0.922322  0.147732  0.089886
H 0.953370  0.855173  0.808761
H 0.706240  0.143103  0.308797
H 0.543729  0.642944  0.806608
H 0.796378  0.357526  0.309051
H 0.718952  0.505201  0.175264
H 0.636320  0.189694  0.784451
H 0.542452  0.159689  0.902418
H 0.654633  0.072620  0.874394
H 0.407483  0.170006  0.796953
H 0.497063  0.245343  0.700454
H 0.388352  0.173991  0.628044
H 0.628616  0.950256  0.677780
H 0.557793  0.119936  0.572324
H 0.707826  0.059577  0.714874
H 0.413598  0.981582  0.251663
H 0.377355  0.853159  0.193901
H 0.364121  0.877392  0.358222
H 0.192533  0.818133  0.357943
H 0.162532  0.800421  0.190575
H 0.086509  0.893819  0.276928
H 0.350996  0.995072  0.061145
H 0.358584  0.982224  0.888551
H 0.430807  0.888817  0.994966
H 0.982805  0.708980  0.458614
H 0.803755  0.486771  0.792181
H 0.810120  0.460218  0.979907
H 0.056525  0.311258  0.721010
H 0.932809  0.305089  0.805883
H 0.937073  0.269644  0.641828
H 0.891317  0.496316  0.471373
H 0.825193  0.377103  0.537993
H 0.750311  0.470027  0.597406
H 0.689694  0.431552  0.027843
H 0.690788  0.482998  0.863943
H 0.612342  0.372942  0.905666
H 0.483662  0.404915  0.835613
H 0.563392  0.456253  0.724181
H 0.533806  0.784428  0.600633
H 0.603539  0.632145  0.116043
H 0.468730  0.646926  0.076080
H 0.562502  0.704118  0.974842
H 0.562675  0.875904  0.300968
H 0.493075  0.792074  0.142916
H 0.506322  0.917186  0.458552
H 0.797371  0.175096  0.594168
H 0.663608  0.212762  0.587138
H 0.736261  0.215561  0.443882
H 0.719544  0.973138  0.335738
H 0.915528  0.015296  0.253396
H 0.526692  0.834427  0.112569
H 0.773936  0.069730  0.108683
H 0.922534  0.879711  0.199685
H 0.892883  0.904651  0.358898
H 0.717259  0.795130  0.330299
H 0.789175  0.768499  0.189351
H 0.653270  0.803390  0.173837
H 0.865864  0.983535  0.064047
H 0.861665  0.979732  0.890271
H 0.933411  0.877606  0.985406
H 0.311360  0.457910  0.980448
H 0.309071  0.518370  0.803598
H 0.557212  0.772755  0.534749
H 0.462344  0.666574  0.545497
H 0.395858  0.561115  0.444380
H 0.418184  0.395468  0.530690
H 0.399207  0.345963  0.697578
H 0.316368  0.386144  0.562682
H 0.282048  0.421504  0.711215
H 0.191135  0.451605  0.038876
H 0.191842  0.491160  0.870138
H 0.121767  0.380790  0.924750
H 0.015233  0.407550  0.856582
H 0.093477  0.475283  0.732030
H 0.978275  0.733157  0.525413
H 0.100925  0.639860  0.122683
H 0.964955  0.655529  0.083735
H 0.060043  0.711600  0.981361
N 0.308437  0.851253  0.704828
N 0.060729  0.148857  0.206052
N 0.186542  0.650310  0.705838
N 0.438810  0.350928  0.208041
N 0.808437  0.851253  0.704828
N 0.560729  0.148857  0.206052
N 0.686543  0.650310  0.705838
N 0.938810  0.350928  0.208041
Ni 0.247002  0.751486  0.836326
Ni 0.499972  0.247999  0.339178
Ni 0.747002  0.751486  0.836326
Ni 0.999972  0.247999  0.339178
O 0.122778  0.347689  0.382873
O 0.371208  0.650977  0.881292
O 0.377630  0.147507  0.377178
O 0.125098  0.852352  0.876261
O 0.473069  0.356160  0.482994
O 0.221137  0.641415  0.979877
O 0.028840  0.135158  0.481078
O 0.276686  0.862758  0.979399
O 0.622779  0.347689  0.382873
O 0.871208  0.650977  0.881292
O 0.877630  0.147507  0.377178
O 0.625098  0.852352  0.876261
O 0.973069  0.356160  0.482994
O 0.721137  0.641415  0.979877
O 0.528840  0.135158  0.481078
O 0.776686  0.862758  0.979399
