log             log.Pn_Ni-PyC-NH2_with_Kr append
units           real
atom_style      full
boundary        p p p

pair_style      lj/cut 14.000
bond_style      harmonic
angle_style     cosine/periodic
dihedral_style  harmonic
improper_style  fourier

pair_modify     tail yes mix arithmetic
special_bonds   lj/coul 0.0 0.0 1.0
dielectric      1.0
box tilt        large
read_data       data.Pn_Ni-PyC-NH2_with_Kr

#### Atom Groupings ####
group           1        id   2233
group           fram     id   1:2232
#### END Atom Groupings ####

dump            Pn_Ni-PyC-NH2_with_Kr_xyzmov all xyz 10000 Pn_Ni-PyC-NH2_with_Kr_mov.xyz
dump_modify     Pn_Ni-PyC-NH2_with_Kr_xyzmov element Ni O C H N Kr
variable        dt         equal 1.00
variable        tdamp      equal 100*${dt}
fix             1 1 langevin 298.00 298.00 ${tdamp} 759401
fix             2 1 nve
fix             3 fram langevin 298.00 298.00 ${tdamp} 1867120
fix             4 fram nve
thermo          0
run             200000
unfix           1
unfix           2
unfix           3
unfix           4
fix             5 1 nvt temp 298.00 298.00 ${tdamp}
fix             6 fram nvt temp 298.00 298.00 ${tdamp}
thermo          1
run             200000
unfix           5
unfix           6
undump          Pn_Ni-PyC-NH2_with_Kr_xyzmov
